.Version 9.4.2 of ABINIT

 ABINIT is a project of the Universite Catholique de Louvain,
 Corning Inc. and other collaborators, see ~abinit/doc/developers/contributors.txt .
 acknowledgments of the ABINIT effort.

.Starting date : Wed 25 Aug 2021.
- ( at 07h08 )

- input  file    -> /scratch/users/j/b/jbouq/LumiWork_tuto/delta_SCF_no_BS/flow_deltaSCF/w0/t5/run.abi
- output file    -> /scratch/users/j/b/jbouq/LumiWork_tuto/delta_SCF_no_BS/flow_deltaSCF/w0/t5/run.abo
- root for input  files -> /scratch/users/j/b/jbouq/LumiWork_tuto/delta_SCF_no_BS/flow_deltaSCF/w0/t5/indata/in
- root for output files -> /scratch/users/j/b/jbouq/LumiWork_tuto/delta_SCF_no_BS/flow_deltaSCF/w0/t5/outdata/out

- inpspheads : Reading pseudopotential header in XML form from
-   /home/ucl/modl/jbouq/psps_paw_pbe/Eu.GGA_PBE-JTH.xml
- inpspheads : Reading pseudopotential header in XML form from
-   /home/ucl/modl/jbouq/psps_paw_pbe/Sr.GGA_PBE-JTH.xml
- inpspheads : Reading pseudopotential header in XML form from
-   /home/ucl/modl/jbouq/psps_paw_pbe/Li.GGA_PBE-JTH.xml
- inpspheads : Reading pseudopotential header in XML form from
-   /home/ucl/modl/jbouq/psps_paw_pbe/Al.GGA_PBE-JTH.xml
- inpspheads : Reading pseudopotential header in XML form from
-   /home/ucl/modl/jbouq/psps_paw_pbe/N.GGA_PBE-JTH.xml
- inpspheads : Reading pseudopotential header in XML form from
-   /home/ucl/modl/jbouq/psps_paw_pbe/O.GGA_PBE-JTH.xml

 Symmetries : space group P2/m (# 10); Bravais mP (primitive monocl.)
     intxc =       0    ionmov =       0      iscf =      17    lmnmax =      32
     lnmax =       8     mgfft =      90  mpssoang =       4    mqgrid =    5989
     natom =      72  nloc_mem =       2    nspden =       2   nspinor =       1
    nsppol =       2      nsym =       4    n1xccc =       1    ntypat =       6
    occopt =       2   xclevel =       2
-    mband =         204        mffmem =           1         mkmem =           1
       mpw =        1624          nfft =       29160          nkpt =           2
Pmy_natom=        18
 PAW method is used; the additional fine FFT grid is defined by:
   mgfftf=       120    nfftf =     76800
  Rough estimation (10% accuracy) of disk space for files :

------------- Echo of variables that govern the present computation ------------
-
- outvars: echo of selected default values
-   iomode0 =  0 , fftalg0 =512 , wfoptalg0 = 10
-
- outvars: echo of global parameters not present in the input file
-  max_nthreads =    0
-
 -outvars: echo values of preprocessed input variables --------
-          iomode           1
            acell      1.0000000000E+00  1.0000000000E+00  1.0000000000E+00 Bohr
              amu      1.51965000E+02  8.76200000E+01  6.94100000E+00
                       2.69815390E+01  1.40067400E+01  1.59994000E+01
           bandpp          68
          chkprim           0
      chksymbreak           0
     densfor_pred           6
           diemac      5.00000000E+00
             ecut      1.50000000E+01 Hartree
-          fftalg         401
           irdden           1
              ixc     -101130
            jpawu      2.57245278E-02  0.00000000E+00  0.00000000E+00  0.00000000E+00  0.00000000E+00  0.00000000E+00 Hartree
              kpt      2.50000000E-01  2.50000000E-01  2.50000000E-01
                      -2.50000000E-01  2.50000000E-01  2.50000000E-01
         kptrlatt        2    0    0      0    2    0      0    0    2
          kptrlen      3.02779499E+01
            lpawu           3      -1      -1      -1      -1      -1
P           mkmem           1
            natom          72
            nband         204     204     204     204
            ngfft          54      60      90
          ngfftdg          80      80     120
             nkpt           2
-           npfft          10
-        np_spkpt           4
           nspden           2
           nsppol           2
            nstep         100
             nsym           4
           ntypat           6
              occ      1.000000  1.000000  1.000000  1.000000  1.000000  1.000000
                       1.000000  1.000000  1.000000  1.000000  1.000000  1.000000
                       1.000000  1.000000  1.000000  1.000000  1.000000  1.000000
                       1.000000  1.000000  1.000000  1.000000  1.000000  1.000000
                       1.000000  1.000000  1.000000  1.000000  1.000000  1.000000
                       1.000000  1.000000  1.000000  1.000000  1.000000  1.000000
                       1.000000  1.000000  1.000000  1.000000  1.000000  1.000000
                       1.000000  1.000000  1.000000  1.000000  1.000000  1.000000
                       1.000000  1.000000  1.000000  1.000000  1.000000  1.000000
                       1.000000  1.000000  1.000000  1.000000  1.000000  1.000000
                       1.000000  1.000000  1.000000  1.000000  1.000000  1.000000
                       1.000000  1.000000  1.000000  1.000000  1.000000  1.000000
                       1.000000  1.000000  1.000000  1.000000  1.000000  1.000000
                       1.000000  1.000000  1.000000  1.000000  1.000000  1.000000
                       1.000000  1.000000  1.000000  1.000000  1.000000  1.000000
                       1.000000  1.000000  1.000000  1.000000  1.000000  1.000000
                       1.000000  1.000000  1.000000  1.000000  1.000000  1.000000
                       1.000000  1.000000  1.000000  1.000000  1.000000  1.000000
                       1.000000  1.000000  1.000000  1.000000  1.000000  1.000000
                       1.000000  1.000000  1.000000  1.000000  1.000000  1.000000
                       1.000000  1.000000  1.000000  1.000000  1.000000  1.000000
                       1.000000  1.000000  1.000000  1.000000  1.000000  1.000000
                       1.000000  1.000000  1.000000  1.000000  1.000000  1.000000
                       1.000000  1.000000  1.000000  1.000000  1.000000  1.000000
                       1.000000  1.000000  1.000000  1.000000  1.000000  1.000000
                       1.000000  1.000000  1.000000  1.000000  1.000000  1.000000
                       1.000000  1.000000  1.000000  1.000000  1.000000  1.000000
                       1.000000  1.000000  1.000000  1.000000  1.000000  1.000000
                       1.000000  1.000000  1.000000  1.000000  1.000000  1.000000
                       1.000000  1.000000  1.000000  1.000000  1.000000  1.000000
                       1.000000  1.000000  1.000000  0.000000  0.000000  0.000000
                       0.000000  0.000000  0.000000  0.000000  0.000000  0.000000
                       0.000000  0.000000  0.000000  0.000000  0.000000  0.000000
                       0.000000  0.000000  0.000000  0.000000  0.000000  0.000000
                       1.000000  1.000000  1.000000  1.000000  1.000000  1.000000
                       1.000000  1.000000  1.000000  1.000000  1.000000  1.000000
                       1.000000  1.000000  1.000000  1.000000  1.000000  1.000000
                       1.000000  1.000000  1.000000  1.000000  1.000000  1.000000
                       1.000000  1.000000  1.000000  1.000000  1.000000  1.000000
                       1.000000  1.000000  1.000000  1.000000  1.000000  1.000000
                       1.000000  1.000000  1.000000  1.000000  1.000000  1.000000
                       1.000000  1.000000  1.000000  1.000000  1.000000  1.000000
                       1.000000  1.000000  1.000000  1.000000  1.000000  1.000000
                       1.000000  1.000000  1.000000  1.000000  1.000000  1.000000
                       1.000000  1.000000  1.000000  1.000000  1.000000  1.000000
                       1.000000  1.000000  1.000000  1.000000  1.000000  1.000000
                       1.000000  1.000000  1.000000  1.000000  1.000000  1.000000
                       1.000000  1.000000  1.000000  1.000000  1.000000  1.000000
                       1.000000  1.000000  1.000000  1.000000  1.000000  1.000000
                       1.000000  1.000000  1.000000  1.000000  1.000000  1.000000
                       1.000000  1.000000  1.000000  1.000000  1.000000  1.000000
                       1.000000  1.000000  1.000000  1.000000  1.000000  1.000000
                       1.000000  1.000000  1.000000  1.000000  1.000000  1.000000
                       1.000000  1.000000  1.000000  1.000000  1.000000  1.000000
                       1.000000  1.000000  1.000000  1.000000  1.000000  1.000000
                       1.000000  1.000000  1.000000  1.000000  1.000000  1.000000
                       1.000000  1.000000  1.000000  1.000000  1.000000  1.000000
                       1.000000  1.000000  1.000000  1.000000  1.000000  1.000000
                       1.000000  1.000000  1.000000  1.000000  1.000000  1.000000
                       1.000000  1.000000  1.000000  1.000000  1.000000  1.000000
                       1.000000  1.000000  1.000000  1.000000  1.000000  1.000000
[...]
                       1.000000  1.000000  1.000000  1.000000  1.000000  1.000000
                       1.000000  1.000000  1.000000  1.000000  1.000000  1.000000
                       1.000000  1.000000  1.000000  1.000000  1.000000  1.000000
                       1.000000  1.000000  1.000000  1.000000  1.000000  1.000000
                       1.000000  1.000000  1.000000  1.000000  1.000000  1.000000
                       1.000000  1.000000  1.000000  1.000000  1.000000  1.000000
                       1.000000  1.000000  1.000000  1.000000  1.000000  1.000000
                       1.000000  1.000000  1.000000  1.000000  1.000000  1.000000
                       1.000000  1.000000  1.000000  1.000000  1.000000  1.000000
                       1.000000  1.000000  1.000000  1.000000  1.000000  1.000000
                       1.000000  1.000000  0.000000  0.000000  0.000000  0.000000
                       0.000000  0.000000  0.000000  0.000000  0.000000  0.000000
                       0.000000  0.000000  0.000000  0.000000  0.000000  0.000000
                       0.000000  0.000000  0.000000  0.000000  0.000000  0.000000
                       0.000000  0.000000  0.000000  0.000000  0.000000  0.000000
           occopt           2
        paral_kgb           1
        pawecutdg      3.00000000E+01 Hartree
         pawmixdg           1
            prtwf          -1
            rprim      1.5139044928E+01  3.8157104200E-02  0.0000000000E+00
                       3.8157104200E-02  1.5138926862E+01  0.0000000000E+00
                       0.0000000000E+00  0.0000000000E+00  2.4286034968E+01
           shiftk      5.00000000E-01  5.00000000E-01  5.00000000E-01
          spgroup          10
           spinat      0.0000000000E+00  0.0000000000E+00  7.0000000000E+00
                       0.0000000000E+00  0.0000000000E+00  0.0000000000E+00
                       0.0000000000E+00  0.0000000000E+00  0.0000000000E+00
                       0.0000000000E+00  0.0000000000E+00  0.0000000000E+00
                       0.0000000000E+00  0.0000000000E+00  0.0000000000E+00
                       0.0000000000E+00  0.0000000000E+00  0.0000000000E+00
[...]
         wfoptalg         114
              wtk        0.50000    0.50000
           xangst      4.0056187680E+00  1.0095934944E-02  1.6064520240E+00
                       4.0056187680E+00  1.0095934944E-02  4.7975601448E+00
                       4.0056187680E+00  1.0095934944E-02  8.0322601200E+00
                       4.0056187680E+00  1.0095934944E-02  1.1266960095E+01
                       1.0095934944E-02  4.0055875290E+00 -6.3298978016E-04
                       1.0095934944E-02  4.0055875290E+00  3.2135370378E+00
                       1.0095934944E-02  4.0055875290E+00  6.4282873129E+00
                       1.0095934944E-02  4.0055875290E+00  9.6362329272E+00
                       1.0186555921E+00  6.5960341549E+00  1.6064520240E+00
                       1.0264806291E+00  6.5984936124E+00  4.8143760797E+00
                       1.0213180372E+00  6.5906890203E+00  8.0322601200E+00
                       1.0264806291E+00  6.5984936124E+00  1.1250144160E+01
                       7.0127738138E+00  1.4353327731E+00  1.6064520240E+00
                       7.0049487767E+00  1.4328733155E+00  4.8143760797E+00
                       7.0101113686E+00  1.4406779076E+00  8.0322601200E+00
                       7.0049487767E+00  1.4328733155E+00  1.1250144160E+01
                       1.4193887833E+00  1.0176058536E+00  5.3445582382E-03
                       1.4193887833E+00  1.0176058536E+00  3.2075594898E+00
                       1.4230763744E+00  1.0131939007E+00  6.4266279829E+00
                       1.4230763744E+00  1.0131939007E+00  9.6378922572E+00
                       6.6120406225E+00  7.0137610743E+00  5.3445582382E-03
                       6.6120406225E+00  7.0137610743E+00  3.2075594898E+00
                       6.6083530315E+00  7.0181730273E+00  6.4266279829E+00
                       6.6083530315E+00  7.0181730273E+00  9.6378922572E+00
                       2.8459457086E+00  5.4914837829E+00  1.4547768642E-02
                       2.8459457086E+00  5.4914837829E+00  3.1983562794E+00
                       2.8427543352E+00  5.4912052813E+00  6.4218349199E+00
                       2.8427543352E+00  5.4912052813E+00  9.6426853201E+00
                       5.1854836972E+00  2.5398831450E+00  1.4547768642E-02
                       5.1854836972E+00  2.5398831450E+00  3.1983562794E+00
                       5.1886750706E+00  2.5401616467E+00  6.4218349199E+00
                       5.1886750706E+00  2.5401616467E+00  9.6426853201E+00
                       2.5334400454E+00  2.8222455532E+00  1.6064520240E+00
                       2.5436342875E+00  2.8262977223E+00  4.8154441621E+00
                       2.5411977697E+00  2.8400736789E+00  8.0322601200E+00
                       2.5436342875E+00  2.8262977223E+00  1.1249076078E+01
                       5.4979893604E+00  5.2091213748E+00  1.6064520240E+00
                       5.4877951183E+00  5.2050692056E+00  4.8154441621E+00
                       5.4902316361E+00  5.1912932491E+00  8.0322601200E+00
                       5.4877951183E+00  5.2050692056E+00  1.1249076078E+01
                       4.6981272331E+00  5.8976196512E+00  1.6136936527E-02
                       4.6981272331E+00  5.8976196512E+00  3.1967671115E+00
                       4.6995714227E+00  5.8566265002E+00  6.4256633907E+00
                       4.6995714227E+00  5.8566265002E+00  9.6388568494E+00
                       3.3333021727E+00  2.1337472768E+00  1.6136936527E-02
                       3.3333021727E+00  2.1337472768E+00  3.1967671115E+00
                       3.3318579831E+00  2.1747404277E+00  6.4256633907E+00
                       3.3318579831E+00  2.1747404277E+00  9.6388568494E+00
                       2.1797261611E+00  4.6768281707E+00  1.6064520240E+00
                       2.1907893079E+00  4.6891666651E+00  4.8026781107E+00
                       2.1753161751E+00  4.6960857951E+00  8.0322601200E+00
                       2.1907893079E+00  4.6891666651E+00  1.1261842129E+01
                       5.8517032447E+00  3.3545387572E+00  1.6064520240E+00
                       5.8406400979E+00  3.3422002628E+00  4.8026781107E+00
                       5.8561132308E+00  3.3352811328E+00  8.0322601200E+00
                       5.8406400979E+00  3.3422002628E+00  1.1261842129E+01
                       2.0758004675E+00  7.1660608628E+00  4.2371781155E-02
                       2.0758004675E+00  7.1660608628E+00  3.1705322669E+00
                       2.0458665254E+00  7.1495959057E+00  6.4173682572E+00
                       2.0458665254E+00  7.1495959057E+00  9.6471519829E+00
                       5.9556289384E+00  8.6530606512E-01  4.2371781155E-02
                       5.9556289384E+00  8.6530606512E-01  3.1705322669E+00
                       5.9855628804E+00  8.8177102223E-01  6.4173682572E+00
                       5.9855628804E+00  8.8177102223E-01  9.6471519829E+00
                       8.5710671672E-01  2.0586468035E+00  1.6064520240E+00
                       8.6688282897E-01  2.0589832046E+00  4.8093201910E+00
                       8.6845895766E-01  2.0650104442E+00  8.0322601200E+00
                       8.6688282897E-01  2.0589832046E+00  1.1255200049E+01
                       7.1743226891E+00  5.9727201244E+00  1.6064520240E+00
                       7.1645465768E+00  5.9723837233E+00  4.8093201910E+00
                       7.1629704482E+00  5.9663564838E+00  8.0322601200E+00
                       7.1645465768E+00  5.9723837233E+00  1.1255200049E+01
            xcart      7.5695224642E+00  1.9078552100E-02  3.0357543710E+00
                       7.5695224642E+00  1.9078552100E-02  9.0660747797E+00
                       7.5695224642E+00  1.9078552100E-02  1.5178771855E+01
                       7.5695224642E+00  1.9078552100E-02  2.1291468930E+01
                       1.9078552100E-02  7.5694634311E+00 -1.1961773294E-03
                       1.9078552100E-02  7.5694634311E+00  6.0727049193E+00
                       1.9078552100E-02  7.5694634311E+00  1.2147702525E+01
                       1.9078552100E-02  7.5694634311E+00  1.8209841185E+01
                       1.9249800927E+00  1.2464698116E+01  3.0357543710E+00
                       1.9397672697E+00  1.2469345817E+01  9.0978522914E+00
                       1.9300113849E+00  1.2454597275E+01  1.5178771855E+01
                       1.9397672697E+00  1.2469345817E+01  2.1259691418E+01
                       1.3252221940E+01  2.7123858506E+00  3.0357543710E+00
                       1.3237434763E+01  2.7077381494E+00  9.0978522914E+00
                       1.3247190648E+01  2.7224866911E+00  1.5178771855E+01
                       1.3237434763E+01  2.7077381494E+00  2.1259691418E+01
                       2.6822560766E+00  1.9229963745E+00  1.0099751371E-02
                       2.6822560766E+00  1.9229963745E+00  6.0614089906E+00
                       2.6892246137E+00  1.9146589918E+00  1.2144566846E+01
                       2.6892246137E+00  1.9146589918E+00  1.8212976864E+01
                       1.2494945956E+01  1.3254087592E+01  1.0099751371E-02
                       1.2494945956E+01  1.3254087592E+01  6.0614089906E+00
                       1.2487977419E+01  1.3262424975E+01  1.2144566846E+01
                       1.2487977419E+01  1.3262424975E+01  1.8212976864E+01
                       5.3780579783E+00  1.0377400413E+01  2.7491298577E-02
                       5.3780579783E+00  1.0377400413E+01  6.0440174434E+00
                       5.3720271567E+00  1.0376874121E+01  1.2135509269E+01
                       5.3720271567E+00  1.0376874121E+01  1.8222034441E+01
                       9.7991440543E+00  4.7996835536E+00  2.7491298577E-02
                       9.7991440543E+00  4.7996835536E+00  6.0440174434E+00
                       9.8051748759E+00  4.8002098454E+00  1.2135509269E+01
                       9.8051748759E+00  4.8002098454E+00  1.8222034441E+01
                       4.7875078599E+00  5.3332711752E+00  3.0357543710E+00
                       4.8067721856E+00  5.3409286651E+00  9.0998706746E+00
                       4.8021678342E+00  5.3669614503E+00  1.5178771855E+01
                       4.8067721856E+00  5.3409286651E+00  2.1257673035E+01
                       1.0389694173E+01  9.8438127913E+00  3.0357543710E+00
                       1.0370429847E+01  9.8361553014E+00  9.0998706746E+00
                       1.0375034198E+01  9.8101225162E+00  1.5178771855E+01
                       1.0370429847E+01  9.8361553014E+00  2.1257673035E+01
                       8.8781738081E+00  1.1144885977E+01  3.0494390660E-02
                       8.8781738081E+00  1.1144885977E+01  6.0410143513E+00
                       8.8809029309E+00  1.1067420148E+01  1.2142744030E+01
                       8.8809029309E+00  1.1067420148E+01  1.8214799679E+01
                       6.2990282245E+00  4.0321979899E+00  3.0494390660E-02
                       6.2990282245E+00  4.0321979899E+00  6.0410143513E+00
                       6.2962991017E+00  4.1096638185E+00  1.2142744030E+01
                       6.2962991017E+00  4.1096638185E+00  1.8214799679E+01
                       4.1190854892E+00  8.8379244132E+00  3.0357543710E+00
                       4.1399918069E+00  8.8612407885E+00  9.0757463337E+00
                       4.1107518233E+00  8.8743160494E+00  1.5178771855E+01
                       4.1399918069E+00  8.8612407885E+00  2.1281797376E+01
                       1.1058116543E+01  6.3391595533E+00  3.0357543710E+00
                       1.1037210226E+01  6.3158431780E+00  9.0757463337E+00
                       1.1066450209E+01  6.3027679171E+00  1.5178771855E+01
                       1.1037210226E+01  6.3158431780E+00  2.1281797376E+01
                       3.9226943900E+00  1.3541892482E+01  8.0071062146E-02
                       3.9226943900E+00  1.3541892482E+01  5.9914376798E+00
                       3.8661274374E+00  1.3510778223E+01  1.2127068500E+01
                       3.8661274374E+00  1.3510778223E+01  1.8230475210E+01
                       1.1254507643E+01  1.6351914842E+00  8.0071062146E-02
                       1.1254507643E+01  1.6351914842E+00  5.9914376798E+00
                       1.1311074595E+01  1.6663057439E+00  1.2127068500E+01
                       1.1311074595E+01  1.6663057439E+00  1.8230475210E+01
                       1.6196969613E+00  3.8902786630E+00  3.0357543710E+00
                       1.6381711361E+00  3.8909143689E+00  9.0882980463E+00
                       1.6411495876E+00  3.9023042010E+00  1.5178771855E+01
                       1.6381711361E+00  3.8909143689E+00  2.1269245664E+01
                       1.3557505071E+01  1.1286805303E+01  3.0357543710E+00
                       1.3539030897E+01  1.1286169598E+01  9.0882980463E+00
                       1.3536052445E+01  1.1274779765E+01  1.5178771855E+01
                       1.3539030897E+01  1.1286169598E+01  2.1269245664E+01
             xred      5.0000000000E-01 -2.1684043450E-19  1.2500000000E-01
                       5.0000000000E-01 -2.1684043450E-19  3.7330403220E-01
                       5.0000000000E-01 -2.1684043450E-19  6.2500000000E-01
                       5.0000000000E-01 -2.1684043450E-19  8.7669596780E-01
                      -5.5511151231E-17  5.0000000000E-01 -4.9253710249E-05
                      -5.5511151231E-17  5.0000000000E-01  2.5004925371E-01
                      -5.5511151231E-17  5.0000000000E-01  5.0019291090E-01
                      -5.5511151231E-17  5.0000000000E-01  7.4980708910E-01
                       1.2507891490E-01  8.2303888380E-01  1.2500000000E-01
                       1.2605490490E-01  8.2334342720E-01  3.7461250070E-01
                       1.2541293750E-01  8.2237083210E-01  6.2500000000E-01
                       1.2605490490E-01  8.2334342720E-01  8.7538749930E-01
                       8.7492108510E-01  1.7696111620E-01  1.2500000000E-01
                       8.7394509510E-01  1.7665657280E-01  3.7461250070E-01
                       8.7458706250E-01  1.7762916790E-01  6.2500000000E-01
                       8.7394509510E-01  1.7665657280E-01  8.7538749930E-01
                       1.7685569050E-01  1.2657753690E-01  4.1586662396E-04
                       1.7685569050E-01  1.2657753690E-01  2.4958413338E-01
                       1.7731738380E-01  1.2602564840E-01  5.0006379640E-01
                       1.7731738380E-01  1.2602564840E-01  7.4993620360E-01
                       8.2314430950E-01  8.7342246310E-01  4.1586662396E-04
                       8.2314430950E-01  8.7342246310E-01  2.4958413338E-01
                       8.2268261620E-01  8.7397435160E-01  5.0006379640E-01
                       8.2268261620E-01  8.7397435160E-01  7.4993620360E-01
                       3.5351874240E-01  6.8458691000E-01  1.1319797000E-03
                       3.5351874240E-01  6.8458691000E-01  2.4886802030E-01
                       3.5312046540E-01  6.8455314970E-01  4.9969084230E-01
                       3.5312046540E-01  6.8455314970E-01  7.5030915770E-01
                       6.4648125760E-01  3.1541309000E-01  1.1319797000E-03
                       6.4648125760E-01  3.1541309000E-01  2.4886802030E-01
                       6.4687953460E-01  3.1544685030E-01  4.9969084230E-01
                       6.4687953460E-01  3.1544685030E-01  7.5030915770E-01
                       3.1534987170E-01  3.5149376080E-01  1.2500000000E-01
                       3.1662109770E-01  3.5199637130E-01  3.7469560950E-01
                       3.1631262410E-01  3.5371674130E-01  6.2500000000E-01
                       3.1662109770E-01  3.5199637130E-01  8.7530439050E-01
                       6.8465012830E-01  6.4850623920E-01  1.2500000000E-01
                       6.8337890230E-01  6.4800362870E-01  3.7469560950E-01
                       6.8368737590E-01  6.4628325870E-01  6.2500000000E-01
                       6.8337890230E-01  6.4800362870E-01  8.7530439050E-01
                       5.8459036220E-01  7.3470066950E-01  1.2556348000E-03
                       5.8459036220E-01  7.3470066950E-01  2.4874436520E-01
                       5.8478353100E-01  7.2958318660E-01  4.9998874030E-01
                       5.8478353100E-01  7.2958318660E-01  7.5001125970E-01
                       4.1540963780E-01  2.6529933050E-01  1.2556348000E-03
                       4.1540963780E-01  2.6529933050E-01  2.4874436520E-01
                       4.1521646900E-01  2.7041681340E-01  4.9998874030E-01
                       4.1521646900E-01  2.7041681340E-01  7.5001125970E-01
                       2.7061389100E-01  5.8310596590E-01  1.2500000000E-01
                       2.7199097140E-01  5.8464265540E-01  3.7370226740E-01
                       2.7005735370E-01  5.8551121380E-01  6.2500000000E-01
                       2.7199097140E-01  5.8464265540E-01  8.7629773260E-01
                       7.2938610900E-01  4.1689403410E-01  1.2500000000E-01
                       7.2800902860E-01  4.1535734460E-01  3.7370226740E-01
                       7.2994264630E-01  4.1448878620E-01  6.2500000000E-01
                       7.2800902860E-01  4.1535734460E-01  8.7629773260E-01
                       2.5685816200E-01  8.9386068390E-01  3.2970002000E-03
                       2.5685816200E-01  8.9386068390E-01  2.4670299980E-01
                       2.5312682430E-01  8.9181483990E-01  4.9934328580E-01
                       2.5312682430E-01  8.9181483990E-01  7.5065671420E-01
                       7.4314183800E-01  1.0613931610E-01  3.2970002000E-03
                       7.4314183800E-01  1.0613931610E-01  2.4670299980E-01
                       7.4687317570E-01  1.0818516010E-01  4.9934328580E-01
                       7.4687317570E-01  1.0818516010E-01  7.5065671420E-01
                       1.0634104680E-01  2.5670386230E-01  1.2500000000E-01
                       1.0756124860E-01  2.5674277830E-01  3.7421909580E-01
                       1.0775609330E-01  2.5749464120E-01  6.2500000000E-01
                       1.0756124860E-01  2.5674277830E-01  8.7578090420E-01
                       8.9365895320E-01  7.4329613770E-01  1.2500000000E-01
                       8.9243875140E-01  7.4325722170E-01  3.7421909580E-01
                       8.9224390670E-01  7.4250535880E-01  6.2500000000E-01
                       8.9243875140E-01  7.4325722170E-01  8.7578090420E-01
            znucl       63.00000   38.00000    3.00000   13.00000    7.00000    8.00000

- Timing analysis has been suppressed with timopt=0

 Suggested references for the acknowledgment of ABINIT usage.

 Calculation completed.
.Delivered   0 WARNINGs and   0 COMMENTs to log file.