.Version 9.4.2 of ABINIT

 ABINIT is a project of the Universite Catholique de Louvain,
 Corning Inc. and other collaborators, see ~abinit/doc/developers/contributors.txt .
 acknowledgments of the ABINIT effort.

.Starting date : Wed 25 Aug 2021.
- ( at 07h07 )

 === Build Information ===
  Version       : 9.4.2
  Build target  : x86_64_linux_intel19.1
  Build date    : 20210507

 === Optimizations ===
  Debug level        : basic
  Optimization level : standard
  Architecture       : amd_epyc

 === Multicore ===
  Parallel build : yes
  Parallel I/O   :
  openMP support : no
  GPU support    :

 === Connectors / Fallbacks ===
  LINALG flavor  : mkl
  FFT flavor     : dfti
  HDF5           : yes
  NetCDF         : yes
  NetCDF Fortran : yes
  Wannier90      : no

 === Experimental features ===
  Exports             :
  GW double-precision :

 Default optimizations:
   --- None ---

 CPP options activated during the build:

                  CC_INTEL                   CXX_GNU                  FC_INTEL

                 HAVE_DFTI HAVE_FC_ALLOCATABLE_DT...             HAVE_FC_ASYNC

  HAVE_FC_COMMAND_ARGUMENT      HAVE_FC_COMMAND_LINE        HAVE_FC_CONTIGUOUS

           HAVE_FC_CPUTIME             HAVE_FC_ETIME              HAVE_FC_EXIT

             HAVE_FC_FLUSH             HAVE_FC_GAMMA            HAVE_FC_GETENV

            HAVE_FC_GETPID   HAVE_FC_IEEE_ARITHMETIC   HAVE_FC_IEEE_EXCEPTIONS

             HAVE_FC_IOMSG     HAVE_FC_ISO_C_BINDING  HAVE_FC_ISO_FORTRAN_2008

        HAVE_FC_LONG_LINES        HAVE_FC_MOVE_ALLOC  HAVE_FC_ON_THE_FLY_SHAPE

           HAVE_FC_PRIVATE         HAVE_FC_PROTECTED           HAVE_FC_SHIFTLR

         HAVE_FC_STREAM_IO            HAVE_FC_SYSTEM                 HAVE_HDF5

             HAVE_HDF5_MPI        HAVE_LIBPAW_ABINIT      HAVE_LIBTETRA_ABINIT

         HAVE_LINALG_GEMMT  HAVE_LINALG_MKL_IMATCOPY   HAVE_LINALG_MKL_OMATADD

                  HAVE_MPI                 HAVE_MPI2       HAVE_MPI_IALLGATHER

       HAVE_MPI_IALLREDUCE        HAVE_MPI_IALLTOALL       HAVE_MPI_IALLTOALLV

           HAVE_MPI_IBCAST         HAVE_MPI_IGATHERV        HAVE_MPI_INTEGER16

               HAVE_MPI_IO HAVE_MPI_TYPE_CREATE_S...               HAVE_NETCDF

       HAVE_NETCDF_FORTRAN   HAVE_NETCDF_FORTRAN_MPI           HAVE_NETCDF_MPI

             HAVE_OS_LINUX         HAVE_TIMER_ABINIT

- input  file    -> /scratch/users/j/b/jbouq/LumiWork_tuto/delta_SCF_no_BS/flow_deltaSCF/w0/t3/run.abi
- output file    -> /scratch/users/j/b/jbouq/LumiWork_tuto/delta_SCF_no_BS/flow_deltaSCF/w0/t3/run.abo
- root for input  files -> /scratch/users/j/b/jbouq/LumiWork_tuto/delta_SCF_no_BS/flow_deltaSCF/w0/t3/indata/in
- root for output files -> /scratch/users/j/b/jbouq/LumiWork_tuto/delta_SCF_no_BS/flow_deltaSCF/w0/t3/outdata/out

-instrng: 248 lines of input have been read from file /scratch/users/j/b/jbouq/LumiWork_tuto/delta_SCF_no_BS/flow_deltaSCF/w0/t3/run.abi

 Please give name of formatted atomic psp file (and finish with a newline character)
 For atom type 1, psp file is /home/ucl/modl/jbouq/psps_paw_pbe/Eu.GGA_PBE-JTH.xml

[...]

 Please give name of formatted atomic psp file (and finish with a newline character)
 For atom type 5, psp file is /home/ucl/modl/jbouq/psps_paw_pbe/N.GGA_PBE-JTH.xml

 Please give name of formatted atomic psp file (and finish with a newline character)
 For atom type 6, psp file is /home/ucl/modl/jbouq/psps_paw_pbe/O.GGA_PBE-JTH.xml
- inpspheads : Reading pseudopotential header in XML form from
-   /home/ucl/modl/jbouq/psps_paw_pbe/Eu.GGA_PBE-JTH.xml
- inpspheads : Reading pseudopotential header in XML form from
-   /home/ucl/modl/jbouq/psps_paw_pbe/Sr.GGA_PBE-JTH.xml
- inpspheads : Reading pseudopotential header in XML form from
-   /home/ucl/modl/jbouq/psps_paw_pbe/Li.GGA_PBE-JTH.xml
- inpspheads : Reading pseudopotential header in XML form from
-   /home/ucl/modl/jbouq/psps_paw_pbe/Al.GGA_PBE-JTH.xml
- inpspheads : Reading pseudopotential header in XML form from
-   /home/ucl/modl/jbouq/psps_paw_pbe/N.GGA_PBE-JTH.xml
- inpspheads : Reading pseudopotential header in XML form from
-   /home/ucl/modl/jbouq/psps_paw_pbe/O.GGA_PBE-JTH.xml

 inpspheads: deduce mpsang = 4, n1xccc = 1.

 invars1m : enter jdtset= 0

 symlatt: the Bravais lattice is oC (one-face-centered orthorhombic)
  xred   is defined in input file
 ingeo: takes atomic coordinates from input array xred

--- !COMMENT
src_file: m_ingeo.F90
src_line: 900
message: |
    The tolerance on symmetries =   1.000E-05 is bigger than 1.0e-8.
    In order to avoid spurious effects, the atomic coordinates have been
    symmetrized before storing them in the dataset internal variable.
    So, do not be surprised by the fact that your input variables (xcart, xred, ...)
    do not correspond exactly to the ones echoed by ABINIT, the latter being used to do the calculations.
    This is not a problem per se.
    Still, in order to avoid this symmetrization (e.g. for specific debugging/development), decrease tolsym to 1.0e-8 or lower,
    or (much preferred) use input primitive vectors that are accurate to better than 1.0e-8.
    This message will only be printed once, even if there are other datasets where tolsym is bigger than 1.0e-8.
...

 symlatt: the Bravais lattice is oC (one-face-centered orthorhombic)

 symlatt: the Bravais lattice is oC (one-face-centered orthorhombic)

--- !COMMENT
src_file: m_symfind.F90
src_line: 1018
message: |
    The Bravais lattice determined only from the primitive
    vectors, bravais(1)=  3, is more symmetric
    than the real one, iholohedry=  2, obtained by taking into
    account the atomic positions. Start deforming the primitive vector set.
...

 symlatt: the Bravais lattice is mP (primitive monoclinic)
 symspgr: spgroup=  10  P2/m   (=C2h^1)
 invars2: reading occ(nband*nkpt*nsppol) explicitly
getng is called for the coarse grid:
 For input ecut=  1.500000E+01 best grid ngfft=      54      60      90
       max ecut=  1.569671E+01

 ==== FFT mesh ====
  FFT mesh divisions ........................    54   60   90
  Augmented FFT divisions ...................    55   61   90
  FFT algorithm .............................   401
  FFT cache size ............................    16
 Relative gap for number of plane waves between process (%):  9.85
 Relative gap for number of plane waves between process (%):  9.72
 getmpw: optimal value of mpw= 1624
getng is called for the fine grid:
 Using supplied coarse mesh as initial guess.
 For input ecut=  3.000000E+01 best grid ngfft=      80      80     120
       max ecut=  3.012028E+01

 ==== FFT mesh ====
  FFT mesh divisions ........................    80   80  120
  Augmented FFT divisions ...................    81   81  120
  FFT algorithm .............................   401
  FFT cache size ............................    16

 Symmetries : space group P2/m (# 10); Bravais mP (primitive monocl.)

 getdim_nloc : deduce lmnmax  =  32, lnmax  =   8,
                      lmnmaxso=  32, lnmaxso=   8.
     intxc =       0    ionmov =       0      iscf =      17    lmnmax =      32
     lnmax =       8     mgfft =      90  mpssoang =       4    mqgrid =    5989
     natom =      72  nloc_mem =       2    nspden =       2   nspinor =       1
    nsppol =       2      nsym =       4    n1xccc =       1    ntypat =       6
    occopt =       2   xclevel =       2
-    mband =         204        mffmem =           1         mkmem =           1
       mpw =        1624          nfft =       29160          nkpt =           2
Pmy_natom=        18
 PAW method is used; the additional fine FFT grid is defined by:
   mgfftf=       120    nfftf =     76800
  Rough estimation (10% accuracy) of disk space for files :

 The job will continue.
------------- Echo of variables that govern the present computation ------------
-
- outvars: echo of selected default values
-   iomode0 =  0 , fftalg0 =512 , wfoptalg0 = 10
-
- outvars: echo of global parameters not present in the input file
-  max_nthreads =    0
-
 -outvars: echo values of preprocessed input variables --------

 These variables are accessible in NetCDF format (
 /scratch/users/j/b/jbouq/LumiWork_tuto/delta_SCF_no_BS/flow_deltaSCF/w0/t3/outd
 ata/out_OUT.nc)

-          iomode           1
            acell      1.0000000000E+00  1.0000000000E+00  1.0000000000E+00 Bohr
              amu      1.51965000E+02  8.76200000E+01  6.94100000E+00
                       2.69815390E+01  1.40067400E+01  1.59994000E+01
           bandpp          68
          chkprim           0
      chksymbreak           0
     densfor_pred           6
           diemac      5.00000000E+00
             ecut      1.50000000E+01 Hartree
-          fftalg         401
           irdden           1
              ixc     -101130
            jpawu      2.57245278E-02  0.00000000E+00  0.00000000E+00  0.00000000E+00  0.00000000E+00  0.00000000E+00 Hartree
              kpt      2.50000000E-01  2.50000000E-01  2.50000000E-01
                      -2.50000000E-01  2.50000000E-01  2.50000000E-01
         kptrlatt        2    0    0      0    2    0      0    0    2
          kptrlen      3.02779499E+01
            lpawu           3      -1      -1      -1      -1      -1
P           mkmem           1
            natom          72
            nband         204     204     204     204
            ngfft          54      60      90
          ngfftdg          80      80     120
             nkpt           2
-           npfft          10
-        np_spkpt           4
           nspden           2
           nsppol           2
            nstep         100
             nsym           4
           ntypat           6
              occ      1.000000  1.000000  1.000000  1.000000  1.000000  1.000000
                       1.000000  1.000000  1.000000  1.000000  1.000000  1.000000
                       1.000000  1.000000  1.000000  1.000000  1.000000  1.000000
                       1.000000  1.000000  1.000000  1.000000  1.000000  1.000000
                       1.000000  1.000000  1.000000  1.000000  1.000000  1.000000
                       1.000000  1.000000  1.000000  1.000000  1.000000  1.000000
                       1.000000  1.000000  1.000000  1.000000  1.000000  1.000000
                       1.000000  1.000000  1.000000  1.000000  1.000000  1.000000
                       1.000000  1.000000  1.000000  1.000000  1.000000  1.000000
                       1.000000  1.000000  1.000000  1.000000  1.000000  1.000000
                       1.000000  1.000000  1.000000  1.000000  1.000000  1.000000
                       1.000000  1.000000  1.000000  1.000000  1.000000  1.000000
                       1.000000  1.000000  1.000000  1.000000  1.000000  1.000000
                       1.000000  1.000000  1.000000  1.000000  1.000000  1.000000
                       1.000000  1.000000  1.000000  1.000000  1.000000  1.000000
                       1.000000  1.000000  1.000000  1.000000  1.000000  1.000000
                       1.000000  1.000000  1.000000  1.000000  1.000000  1.000000
                       1.000000  1.000000  1.000000  1.000000  1.000000  1.000000
[...]
                       1.0095934944E-02  4.0055875290E+00  6.4261967919E+00
                       1.0095934944E-02  4.0055875290E+00  9.6383234482E+00
                       1.0217247860E+00  6.5943499652E+00  1.6064520240E+00
                       1.0225694129E+00  6.5936654374E+00  4.8223198796E+00
                       1.0249806176E+00  6.5950367007E+00  8.0322601200E+00
                       1.0225694129E+00  6.5936654374E+00  1.1242200360E+01
                       7.0097046198E+00  1.4370169627E+00  1.6064520240E+00
                       7.0088599929E+00  1.4377014906E+00  4.8223198796E+00
                       7.0064487882E+00  1.4363302272E+00  8.0322601200E+00
                       7.0088599929E+00  1.4377014906E+00  1.1242200360E+01
                       1.4194855438E+00  1.0154564806E+00 -4.1803196117E-04
                       1.4194855438E+00  1.0154564806E+00  3.2133220800E+00
                       1.4218351583E+00  1.0161913324E+00  6.4262603405E+00
                       1.4218351583E+00  1.0161913324E+00  9.6382598995E+00
                       6.6119438620E+00  7.0159104474E+00 -4.1803196117E-04
                       6.6119438620E+00  7.0159104474E+00  3.2133220800E+00
                       6.6095942475E+00  7.0151755955E+00  6.4262603405E+00
                       6.6095942475E+00  7.0151755955E+00  9.6382598995E+00
                       2.8404285276E+00  5.4899011717E+00 -2.8390236708E-05
                       2.8404285276E+00  5.4899011717E+00  3.2129324382E+00
                       2.8424842443E+00  5.4902389612E+00  6.4261158794E+00
                       2.8424842443E+00  5.4902389612E+00  9.6384043607E+00
                       5.1910008782E+00  2.5414657563E+00 -2.8390236708E-05
                       5.1910008782E+00  2.5414657563E+00  3.2129324382E+00
                       5.1889451615E+00  2.5411279667E+00  6.4261158794E+00
                       5.1889451615E+00  2.5411279667E+00  9.6384043607E+00
                       2.5394981982E+00  2.8362834068E+00  1.6064520240E+00
                       2.5384831051E+00  2.8384633397E+00  4.8211772694E+00
                       2.5383432678E+00  2.8379800470E+00  8.0322601200E+00
                       2.5384831051E+00  2.8384633397E+00  1.1243342971E+01
                       5.4919312077E+00  5.1950835211E+00  1.6064520240E+00
                       5.4929463008E+00  5.1929035882E+00  4.8211772694E+00
                       5.4930861380E+00  5.1933868809E+00  8.0322601200E+00
                       5.4929463008E+00  5.1929035882E+00  1.1243342971E+01
                       4.6978004701E+00  5.8583626769E+00 -1.9141503410E-03
                       4.6978004701E+00  5.8583626769E+00  3.2148181983E+00
                       4.6990215655E+00  5.8605170226E+00  6.4265129545E+00
                       4.6990215655E+00  5.8605170226E+00  9.6380072856E+00
                       3.3336289358E+00  2.1730042511E+00 -1.9141503410E-03
                       3.3336289358E+00  2.1730042511E+00  3.2148181983E+00
                       3.3324078403E+00  2.1708499053E+00  6.4265129545E+00
                       3.3324078403E+00  2.1708499053E+00  9.6380072856E+00
                       2.1752377891E+00  4.6934176008E+00  1.6064520240E+00
                       2.1755122445E+00  4.6947262127E+00  4.8203563159E+00
                       2.1756741970E+00  4.6946858403E+00  8.0322601200E+00
                       2.1755122445E+00  4.6947262127E+00  1.1244163924E+01
                       5.8561916167E+00  3.3379493271E+00  1.6064520240E+00
                       5.8559171614E+00  3.3366407152E+00  4.8203563159E+00
                       5.8557552088E+00  3.3366810876E+00  8.0322601200E+00
                       5.8559171614E+00  3.3366407152E+00  1.1244163924E+01
                       2.0565788173E+00  7.1572216329E+00 -4.0667076381E-03
                       2.0565788173E+00  7.1572216329E+00  3.2169707556E+00
                       2.0666318964E+00  7.1605407112E+00  6.4265354062E+00
                       2.0666318964E+00  7.1605407112E+00  9.6379848338E+00
                       5.9748505885E+00  8.7414529499E-01 -4.0667076381E-03
                       5.9748505885E+00  8.7414529499E-01  3.2169707556E+00
                       5.9647975095E+00  8.7082621672E-01  6.4265354062E+00
                       5.9647975095E+00  8.7082621672E-01  9.6379848338E+00
                       8.6824821949E-01  2.0600565396E+00  1.6064520240E+00
                       8.6799065423E-01  2.0605749456E+00  4.8202262909E+00
                       8.6722666715E-01  2.0601317617E+00  8.0322601200E+00
                       8.6799065423E-01  2.0605749456E+00  1.1244293949E+01
                       7.1631811863E+00  5.9713103883E+00  1.6064520240E+00
                       7.1634387516E+00  5.9707919823E+00  4.8202262909E+00
                       7.1642027387E+00  5.9712351662E+00  8.0322601200E+00
                       7.1634387516E+00  5.9707919823E+00  1.1244293949E+01
            xcart      7.5695224642E+00  1.9078552100E-02  3.0357543710E+00
                       7.5695224642E+00  1.9078552100E-02  9.1104218761E+00
                       7.5695224642E+00  1.9078552100E-02  1.5178771855E+01
                       7.5695224642E+00  1.9078552100E-02  2.1247121834E+01
                       1.9078552100E-02  7.5694634311E+00 -3.8201703448E-04
                       1.9078552100E-02  7.5694634311E+00  6.0718907590E+00
                       1.9078552100E-02  7.5694634311E+00  1.2143752013E+01
                       1.9078552100E-02  7.5694634311E+00  1.8213791697E+01
                       1.9307800287E+00  1.2461515459E+01  3.0357543710E+00
                       1.9323761422E+00  1.2460221888E+01  9.1128638976E+00
                       1.9369326589E+00  1.2462813201E+01  1.5178771855E+01
                       1.9323761422E+00  1.2460221888E+01  2.1244679812E+01
                       1.3246422004E+01  2.7155685078E+00  3.0357543710E+00
                       1.3244825890E+01  2.7168620780E+00  9.1128638976E+00
                       1.3240269374E+01  2.7142707658E+00  1.5178771855E+01
                       1.3244825890E+01  2.7168620780E+00  2.1244679812E+01
                       2.6824389274E+00  1.9189346481E+00 -7.8996592140E-04
                       2.6824389274E+00  1.9189346481E+00  6.0722987079E+00
                       2.6868790553E+00  1.9203233169E+00  1.2143872102E+01
                       2.6868790553E+00  1.9203233169E+00  1.8213671608E+01
                       1.2494763105E+01  1.3258149318E+01 -7.8996592140E-04
                       1.2494763105E+01  1.3258149318E+01  6.0722987079E+00
                       1.2490322977E+01  1.3256760650E+01  1.2143872102E+01
                       1.2490322977E+01  1.3256760650E+01  1.8213671608E+01
                       5.3676320171E+00  1.0374409711E+01 -5.3649772227E-05
                       5.3676320171E+00  1.0374409711E+01  6.0715623917E+00
                       5.3715167588E+00  1.0375048041E+01  1.2143599110E+01
                       5.3715167588E+00  1.0375048041E+01  1.8213944600E+01
                       9.8095700155E+00  4.8026742554E+00 -5.3649772227E-05
                       9.8095700155E+00  4.8026742554E+00  6.0715623917E+00
                       9.8056852738E+00  4.8020359256E+00  1.2143599110E+01
                       9.8056852738E+00  4.8020359256E+00  1.8213944600E+01
                       4.7989561095E+00  5.3597988741E+00  3.0357543710E+00
                       4.7970378615E+00  5.3639183503E+00  9.1107046773E+00
                       4.7967736074E+00  5.3630050595E+00  1.5178771855E+01
                       4.7970378615E+00  5.3639183503E+00  2.1246839033E+01
                       1.0378245923E+01  9.8172850924E+00  3.0357543710E+00
                       1.0380164171E+01  9.8131656162E+00  9.1107046773E+00
                       1.0380428425E+01  9.8140789070E+00  1.5178771855E+01
                       1.0380164171E+01  9.8131656162E+00  2.1246839033E+01
                       8.8775563153E+00  1.1070701046E+01 -3.6172199217E-03
                       8.8775563153E+00  1.1070701046E+01  6.0751259619E+00
                       8.8798638514E+00  1.1074772170E+01  1.2144349473E+01
                       8.8798638514E+00  1.1074772170E+01  1.8213194236E+01
                       6.2996457173E+00  4.1063829201E+00 -3.6172199217E-03
                       6.2996457173E+00  4.1063829201E+00  6.0751259619E+00
                       6.2973381812E+00  4.1023117967E+00  1.2144349473E+01
                       6.2973381812E+00  4.1023117967E+00  1.8213194236E+01
                       4.1106036953E+00  8.8692738928E+00  3.0357543710E+00
                       4.1111223408E+00  8.8717468110E+00  9.1091532999E+00
                       4.1114283867E+00  8.8716705181E+00  1.5178771855E+01
                       4.1111223408E+00  8.8717468110E+00  2.1248390410E+01
                       1.1066598337E+01  6.3078100737E+00  3.0357543710E+00
                       1.1066079692E+01  6.3053371555E+00  9.1091532999E+00
                       1.1065773646E+01  6.3054134484E+00  1.5178771855E+01
                       1.1066079692E+01  6.3053371555E+00  2.1248390410E+01
                       3.8863707354E+00  1.3525188759E+01 -7.6849636985E-03
                       3.8863707354E+00  1.3525188759E+01  6.0791937057E+00
                       3.9053683016E+00  1.3531460908E+01  1.2144391901E+01
                       3.9053683016E+00  1.3531460908E+01  1.8213151809E+01
                       1.1290831297E+01  1.6518952079E+00 -7.6849636985E-03
                       1.1290831297E+01  1.6518952079E+00  6.0791937057E+00
                       1.1271833731E+01  1.6456230589E+00  1.2144391901E+01
                       1.1271833731E+01  1.6456230589E+00  1.8213151809E+01
                       1.6407513502E+00  3.8929426781E+00  3.0357543710E+00
                       1.6402646224E+00  3.8939223235E+00  9.1089075884E+00
                       1.6388208961E+00  3.8930848272E+00  1.5178771855E+01
                       1.6402646224E+00  3.8939223235E+00  2.1248636121E+01
                       1.3536450682E+01  1.1284141288E+01  3.0357543710E+00
                       1.3536937410E+01  1.1283161643E+01  9.1089075884E+00
                       1.3538381137E+01  1.1283999139E+01  1.5178771855E+01
                       1.3536937410E+01  1.1283161643E+01  2.1248636121E+01
             xred      5.0000000000E-01 -2.1684043450E-19  1.2500000000E-01
                       5.0000000000E-01 -2.1684043450E-19  3.7513006500E-01
                       5.0000000000E-01 -2.1684043450E-19  6.2500000000E-01
                       5.0000000000E-01 -2.1684043450E-19  8.7486993500E-01
                      -5.5511151231E-17  5.0000000000E-01 -1.5729905478E-05
                      -5.5511151231E-17  5.0000000000E-01  2.5001572991E-01
                      -5.5511151231E-17  5.0000000000E-01  5.0003024490E-01
                      -5.5511151231E-17  5.0000000000E-01  7.4996975510E-01
                       1.2546255830E-01  8.2282768680E-01  1.2500000000E-01
                       1.2556820460E-01  8.2274197390E-01  3.7523061750E-01
                       1.2586875290E-01  8.2291238520E-01  6.2500000000E-01
                       1.2556820460E-01  8.2274197390E-01  8.7476938250E-01
                       8.7453744170E-01  1.7717231320E-01  1.2500000000E-01
                       8.7443179540E-01  1.7725802610E-01  3.7523061750E-01
                       8.7413124710E-01  1.7708761480E-01  6.2500000000E-01
                       8.7443179540E-01  1.7725802610E-01  8.7476938250E-01
                       1.7686844490E-01  1.2630920790E-01 -3.2527579016E-05
                       1.7686844490E-01  1.2630920790E-01  2.5003252758E-01
                       1.7716150540E-01  1.2640019760E-01  5.0003518970E-01
                       1.7716150540E-01  1.2640019760E-01  7.4996481030E-01
                       8.2313155510E-01  8.7369079210E-01 -3.2527579016E-05
                       8.2313155510E-01  8.7369079210E-01  2.5003252758E-01
                       8.2283849460E-01  8.7359980240E-01  5.0003518970E-01
                       8.2283849460E-01  8.7359980240E-01  7.4996481030E-01
                       3.5283055570E-01  6.8439109410E-01 -2.2090790982E-06
                       3.5283055570E-01  6.8439109410E-01  2.5000220908E-01
                       3.5308705520E-01  6.8443261240E-01  5.0002394900E-01
                       3.5308705520E-01  6.8443261240E-01  7.4997605100E-01
                       6.4716944430E-01  3.1560890590E-01 -2.2090790982E-06
                       6.4716944430E-01  3.1560890590E-01  2.5000220908E-01
                       6.4691294480E-01  3.1556738760E-01  5.0002394900E-01
                       6.4691294480E-01  3.1556738760E-01  7.4997605100E-01
                       3.1610166680E-01  3.5324414990E-01  1.2500000000E-01
                       3.1597427150E-01  3.5351658250E-01  3.7514170960E-01
                       3.1595696830E-01  3.5345629880E-01  6.2500000000E-01
                       3.1597427150E-01  3.5351658250E-01  8.7485829040E-01
                       6.8389833320E-01  6.4675585010E-01  1.2500000000E-01
                       6.8402572850E-01  6.4648341750E-01  3.7514170960E-01
                       6.8404303170E-01  6.4654370120E-01  6.2500000000E-01
                       6.8402572850E-01  6.4648341750E-01  8.7485829040E-01
                       5.8456192480E-01  7.2980046450E-01 -1.4894238300E-04
                       5.8456192480E-01  7.2980046450E-01  2.5014894238E-01
                       5.8471367080E-01  7.3006899960E-01  5.0005484590E-01
                       5.8471367080E-01  7.3006899960E-01  7.4994515410E-01
                       4.1543807520E-01  2.7019953550E-01 -1.4894238300E-04
                       4.1543807520E-01  2.7019953550E-01  2.5014894238E-01
                       4.1528632920E-01  2.6993100040E-01  5.0005484590E-01
                       4.1528632920E-01  2.6993100040E-01  7.4994515410E-01
                       2.7004840860E-01  5.8517817730E-01  1.2500000000E-01
                       2.7008225590E-01  5.8534144030E-01  3.7507783020E-01
                       2.7010248440E-01  5.8533634980E-01  6.2500000000E-01
                       2.7008225590E-01  5.8534144030E-01  8.7492216980E-01
                       7.2995159140E-01  4.1482182270E-01  1.2500000000E-01
                       7.2991774410E-01  4.1465855970E-01  3.7507783020E-01
                       7.2989751560E-01  4.1466365020E-01  6.2500000000E-01
                       7.2991774410E-01  4.1465855970E-01  8.7492216980E-01
                       2.5446159180E-01  8.9276336190E-01 -3.1643550331E-04
                       2.5446159180E-01  8.9276336190E-01  2.5031643550E-01
                       2.5571542770E-01  8.9317450770E-01  5.0005659290E-01
                       2.5571542770E-01  8.9317450770E-01  7.4994340710E-01
                       7.4553840820E-01  1.0723663810E-01 -3.1643550331E-04
                       7.4553840820E-01  1.0723663810E-01  2.5031643550E-01
                       7.4428457230E-01  1.0682549230E-01  5.0005659290E-01
                       7.4428457230E-01  1.0682549230E-01  7.4994340710E-01
                       1.0773134640E-01  2.5687632930E-01  1.2500000000E-01
                       1.0769903260E-01  2.5694112110E-01  3.7506771280E-01
                       1.0760380700E-01  2.5688604040E-01  6.2500000000E-01
                       1.0769903260E-01  2.5694112110E-01  8.7493228720E-01
                       8.9226865360E-01  7.4312367070E-01  1.2500000000E-01
                       8.9230096740E-01  7.4305887890E-01  3.7506771280E-01
                       8.9239619300E-01  7.4311395960E-01  6.2500000000E-01
                       8.9230096740E-01  7.4305887890E-01  8.7493228720E-01
            znucl       63.00000   38.00000    3.00000   13.00000    7.00000    8.00000

 Suggested references for the acknowledgment of ABINIT usage.

 Calculation completed.
.Delivered   0 WARNINGs and   0 COMMENTs to log file.

--- !FinalSummary
program: abinit
version: 9.4.2
start_datetime: Wed Aug 25 07:07:51 2021
end_datetime: Wed Aug 25 07:10:38 2021
overall_cpu_time:        6625.6
overall_wall_time:        6669.0
exit_requested_by_user: no
timelimit: 1-00:00:00 [days]
pseudos:
    Eu  : e8cbabbafd0770971513c9a2f9d66997
    Sr  : 8d54325f2e386e603a788e5591ec9c3e
    Li  : 2b42cf0006b30297d03a5c0dddd0d05e
    Al  : 38ec013e55acb62b3c542f2043f7ec30
    N   : aea9139712748acddb702675698d6c10
    O   : 13afe03f4a9dc9f4272ab72f1e9ef09a
usepaw: 1
mpi_procs: 40
omp_threads: 1
num_warnings: 0
num_comments: 0
...