.Version 9.4.2 of ABINIT

 ABINIT is a project of the Universite Catholique de Louvain,
 Corning Inc. and other collaborators, see ~abinit/doc/developers/contributors.txt .
 acknowledgments of the ABINIT effort.

.Starting date : Wed 25 Aug 2021.
- ( at 02h21 )

- input  file    -> /scratch/users/j/b/jbouq/LumiWork_tuto/delta_SCF_no_BS/flow_deltaSCF/w0/t0/run.abi
- output file    -> /scratch/users/j/b/jbouq/LumiWork_tuto/delta_SCF_no_BS/flow_deltaSCF/w0/t0/run.abo
- root for input  files -> /scratch/users/j/b/jbouq/LumiWork_tuto/delta_SCF_no_BS/flow_deltaSCF/w0/t0/indata/in
- root for output files -> /scratch/users/j/b/jbouq/LumiWork_tuto/delta_SCF_no_BS/flow_deltaSCF/w0/t0/outdata/out

- inpspheads : Reading pseudopotential header in XML form from
-   /home/ucl/modl/jbouq/psps_paw_pbe/Eu.GGA_PBE-JTH.xml
- inpspheads : Reading pseudopotential header in XML form from
-   /home/ucl/modl/jbouq/psps_paw_pbe/Sr.GGA_PBE-JTH.xml
- inpspheads : Reading pseudopotential header in XML form from
-   /home/ucl/modl/jbouq/psps_paw_pbe/Li.GGA_PBE-JTH.xml
- inpspheads : Reading pseudopotential header in XML form from
-   /home/ucl/modl/jbouq/psps_paw_pbe/Al.GGA_PBE-JTH.xml
- inpspheads : Reading pseudopotential header in XML form from
-   /home/ucl/modl/jbouq/psps_paw_pbe/N.GGA_PBE-JTH.xml
- inpspheads : Reading pseudopotential header in XML form from
-   /home/ucl/modl/jbouq/psps_paw_pbe/O.GGA_PBE-JTH.xml

 Symmetries : space group P2/m (# 10); Bravais mP (primitive monocl.)
     intxc =       0    ionmov =      22      iscf =      17    lmnmax =      32
     lnmax =       8     mgfft =      90  mpssoang =       4    mqgrid =    6231
     natom =      72  nloc_mem =       2    nspden =       2   nspinor =       1
    nsppol =       2      nsym =       4    n1xccc =       1    ntypat =       6
    occopt =       2   xclevel =       2
-    mband =         204        mffmem =           1         mkmem =           1
       mpw =        1848          nfft =       32400          nkpt =           2
Pmy_natom=        18
 PAW method is used; the additional fine FFT grid is defined by:
   mgfftf=       150    nfftf =     96000
  Rough estimation (10% accuracy) of disk space for files :

------------- Echo of variables that govern the present computation ------------
-
- outvars: echo of selected default values
-   iomode0 =  0 , fftalg0 =512 , wfoptalg0 = 10
-
- outvars: echo of global parameters not present in the input file
-  max_nthreads =    0
-
 -outvars: echo values of preprocessed input variables --------
-          iomode           1
            acell      1.0000000000E+00  1.0000000000E+00  1.0000000000E+00 Bohr
              amu      1.51965000E+02  8.76200000E+01  6.94100000E+00
                       2.69815390E+01  1.40067400E+01  1.59994000E+01
           bandpp          68
       chkdilatmx           0
          chkprim           0
      chksymbreak           0
     densfor_pred           6
           diemac      5.00000000E+00
          dilatmx      1.05000000E+00
             ecut      1.50000000E+01 Hartree
           ecutsm      5.00000000E-01 Hartree
-          fftalg         401
           ionmov          22
              ixc     -101130
            jpawu      2.57245278E-02  0.00000000E+00  0.00000000E+00  0.00000000E+00  0.00000000E+00  0.00000000E+00 Hartree
              kpt      2.50000000E-01  2.50000000E-01  2.50000000E-01
                      -2.50000000E-01  2.50000000E-01  2.50000000E-01
         kptrlatt        2    0    0      0    2    0      0    0    2
          kptrlen      3.00806605E+01
            lpawu           3      -1      -1      -1      -1      -1
P           mkmem           1
            natom          72
            nband         204     204     204     204
            ngfft          60      60      90
          ngfftdg          80      80     150
             nkpt           2
-           npfft          10
-        np_spkpt           4
           nspden           2
           nsppol           2
            nstep         100
             nsym           4
            ntime        1000
           ntypat           6
              occ      1.000000  1.000000  1.000000  1.000000  1.000000  1.000000
                       1.000000  1.000000  1.000000  1.000000  1.000000  1.000000
                       1.000000  1.000000  1.000000  1.000000  1.000000  1.000000
                       1.000000  1.000000  1.000000  1.000000  1.000000  1.000000
                       1.000000  1.000000  1.000000  1.000000  1.000000  1.000000
                       1.000000  1.000000  1.000000  1.000000  1.000000  1.000000
                       1.000000  1.000000  1.000000  1.000000  1.000000  1.000000
                       1.000000  1.000000  1.000000  1.000000  1.000000  1.000000
                       1.000000  1.000000  1.000000  1.000000  1.000000  1.000000
                       1.000000  1.000000  1.000000  1.000000  1.000000  1.000000
                       1.000000  1.000000  1.000000  1.000000  1.000000  1.000000
                       1.000000  1.000000  1.000000  1.000000  1.000000  1.000000
                       1.000000  1.000000  1.000000  1.000000  1.000000  1.000000
                       1.000000  1.000000  1.000000  1.000000  1.000000  1.000000
                       1.000000  1.000000  1.000000  1.000000  1.000000  1.000000
                       1.000000  1.000000  1.000000  1.000000  1.000000  1.000000
                       1.000000  1.000000  1.000000  1.000000  1.000000  1.000000
                       1.000000  1.000000  1.000000  1.000000  1.000000  1.000000
                       1.000000  1.000000  1.000000  1.000000  1.000000  1.000000
                       1.000000  1.000000  1.000000  1.000000  1.000000  1.000000
                       1.000000  1.000000  1.000000  1.000000  1.000000  1.000000
                       1.000000  1.000000  1.000000  1.000000  1.000000  1.000000
                       1.000000  1.000000  1.000000  1.000000  1.000000  1.000000
                       1.000000  1.000000  1.000000  1.000000  1.000000  1.000000
                       1.000000  1.000000  1.000000  1.000000  1.000000  1.000000
                       1.000000  1.000000  1.000000  1.000000  1.000000  1.000000
                       1.000000  1.000000  1.000000  1.000000  1.000000  1.000000
                       1.000000  1.000000  1.000000  1.000000  1.000000  1.000000
                       1.000000  1.000000  1.000000  1.000000  1.000000  1.000000
                       1.000000  1.000000  1.000000  1.000000  1.000000  1.000000
                       1.000000  1.000000  1.000000  0.000000  0.000000  0.000000
                       0.000000  0.000000  0.000000  0.000000  0.000000  0.000000
                       0.000000  0.000000  0.000000  0.000000  0.000000  0.000000
                       0.000000  0.000000  0.000000  0.000000  0.000000  0.000000
                       1.000000  1.000000  1.000000  1.000000  1.000000  1.000000
                       1.000000  1.000000  1.000000  1.000000  1.000000  1.000000
                       1.000000  1.000000  1.000000  1.000000  1.000000  1.000000
                       1.000000  1.000000  1.000000  1.000000  1.000000  1.000000
                       1.000000  1.000000  1.000000  1.000000  1.000000  1.000000
                       1.000000  1.000000  1.000000  1.000000  1.000000  1.000000
                       1.000000  1.000000  1.000000  1.000000  1.000000  1.000000
                       1.000000  1.000000  1.000000  1.000000  1.000000  1.000000
                       1.000000  1.000000  1.000000  1.000000  1.000000  1.000000
                       1.000000  1.000000  1.000000  1.000000  1.000000  1.000000
                       1.000000  1.000000  1.000000  1.000000  1.000000  1.000000
                       1.000000  1.000000  1.000000  1.000000  1.000000  1.000000
                       1.000000  1.000000  1.000000  1.000000  1.000000  1.000000
                       1.000000  1.000000  1.000000  1.000000  1.000000  1.000000
                       1.000000  1.000000  1.000000  1.000000  1.000000  1.000000
                       1.000000  1.000000  1.000000  1.000000  1.000000  1.000000
                       1.000000  1.000000  1.000000  1.000000  1.000000  1.000000
                       1.000000  1.000000  1.000000  1.000000  1.000000  1.000000
                       1.000000  1.000000  1.000000  1.000000  1.000000  1.000000
                       1.000000  1.000000  1.000000  1.000000  1.000000  1.000000
                       1.000000  1.000000  1.000000  1.000000  1.000000  1.000000
                       1.000000  1.000000  1.000000  1.000000  1.000000  1.000000
                       1.000000  1.000000  1.000000  1.000000  1.000000  1.000000
                       1.000000  1.000000  1.000000  1.000000  1.000000  1.000000
                       1.000000  1.000000  1.000000  1.000000  1.000000  1.000000
                       1.000000  1.000000  1.000000  1.000000  1.000000  1.000000
                       1.000000  1.000000  1.000000  1.000000  1.000000  1.000000
[...]
                       1.000000  1.000000  1.000000  1.000000  1.000000  1.000000
                       1.000000  1.000000  1.000000  1.000000  1.000000  1.000000
                       1.000000  1.000000  1.000000  1.000000  1.000000  1.000000
                       1.000000  1.000000  1.000000  1.000000  1.000000  1.000000
                       1.000000  1.000000  1.000000  1.000000  1.000000  1.000000
                       1.000000  1.000000  1.000000  1.000000  1.000000  1.000000
                       1.000000  1.000000  1.000000  1.000000  1.000000  1.000000
                       1.000000  1.000000  1.000000  1.000000  1.000000  1.000000
                       1.000000  1.000000  1.000000  1.000000  1.000000  1.000000
                       1.000000  1.000000  1.000000  1.000000  1.000000  1.000000
                       1.000000  1.000000  0.000000  0.000000  0.000000  0.000000
                       0.000000  0.000000  0.000000  0.000000  0.000000  0.000000
                       0.000000  0.000000  0.000000  0.000000  0.000000  0.000000
                       0.000000  0.000000  0.000000  0.000000  0.000000  0.000000
                       0.000000  0.000000  0.000000  0.000000  0.000000  0.000000
           occopt           2
          optcell           2
        optforces           1
        paral_kgb           1
        pawecutdg      3.00000000E+01 Hartree
         pawmixdg           1
            prtwf          -1
            rprim      1.5040330226E+01  0.0000000000E+00  0.0000000000E+00
                       0.0000000000E+00  1.5040330226E+01  0.0000000000E+00
                       0.0000000000E+00  0.0000000000E+00  2.4067551923E+01
           shiftk      5.00000000E-01  5.00000000E-01  5.00000000E-01
          spgroup          10
           spinat      0.0000000000E+00  0.0000000000E+00  7.0000000000E+00
                       0.0000000000E+00  0.0000000000E+00  0.0000000000E+00
                       0.0000000000E+00  0.0000000000E+00  0.0000000000E+00
[...]
         wfoptalg         114
              wtk        0.50000    0.50000
           xangst      4.0056187680E+00  1.0095934939E-02  1.6064520240E+00
                       4.0056187680E+00  1.0095934939E-02  4.8210276174E+00
                       4.0056187680E+00  1.0095934939E-02  8.0322601200E+00
                       4.0056187680E+00  1.0095934939E-02  1.1243492623E+01
                       1.0095934939E-02  4.0055875290E+00 -2.0215477834E-04
                       1.0095934939E-02  4.0055875290E+00  3.2131062028E+00
                       1.0095934939E-02  4.0055875290E+00  6.4261967913E+00
                       1.0095934939E-02  4.0055875290E+00  9.6383234488E+00
                       1.0217247856E+00  6.5943499653E+00  1.6064520240E+00
                       1.0225694132E+00  6.5936654374E+00  4.8223198797E+00
                       1.0249806175E+00  6.5950367006E+00  8.0322601200E+00
                       1.0225694132E+00  6.5936654374E+00  1.1242200360E+01
                       7.0097046202E+00  1.4370169627E+00  1.6064520240E+00
                       7.0088599926E+00  1.4377014906E+00  4.8223198797E+00
                       7.0064487883E+00  1.4363302273E+00  8.0322601200E+00
                       7.0088599926E+00  1.4377014906E+00  1.1242200360E+01
                       1.4194855441E+00  1.0154564804E+00 -4.1803169150E-04
                       1.4194855441E+00  1.0154564804E+00  3.2133220797E+00
                       1.4218351581E+00  1.0161913320E+00  6.4262603412E+00
                       1.4218351581E+00  1.0161913320E+00  9.6382598989E+00
                       6.6119438616E+00  7.0159104475E+00 -4.1803169150E-04
                       6.6119438616E+00  7.0159104475E+00  3.2133220797E+00
                       6.6095942477E+00  7.0151755959E+00  6.4262603412E+00
                       6.6095942477E+00  7.0151755959E+00  9.6382598989E+00
                       2.8404285272E+00  5.4899011717E+00 -2.8389968087E-05
                       2.8404285272E+00  5.4899011717E+00  3.2129324380E+00
                       2.8424842446E+00  5.4902389609E+00  6.4261158792E+00
                       2.8424842446E+00  5.4902389609E+00  9.6384043608E+00
                       5.1910008786E+00  2.5414657562E+00 -2.8389968087E-05
                       5.1910008786E+00  2.5414657562E+00  3.2129324380E+00
                       5.1889451612E+00  2.5411279670E+00  6.4261158792E+00
                       5.1889451612E+00  2.5411279670E+00  9.6384043608E+00
                       2.5394981980E+00  2.8362834065E+00  1.6064520240E+00
                       2.5384831047E+00  2.8384633397E+00  4.8211772697E+00
                       2.5383432674E+00  2.8379800467E+00  8.0322601200E+00
                       2.5384831047E+00  2.8384633397E+00  1.1243342970E+01
                       5.4919312078E+00  5.1950835214E+00  1.6064520240E+00
                       5.4929463011E+00  5.1929035882E+00  4.8211772697E+00
                       5.4930861384E+00  5.1933868812E+00  8.0322601200E+00
                       5.4929463011E+00  5.1929035882E+00  1.1243342970E+01
                       4.6978004701E+00  5.8583626766E+00 -1.9141501225E-03
                       4.6978004701E+00  5.8583626766E+00  3.2148181981E+00
                       4.6990215655E+00  5.8605170227E+00  6.4265129545E+00
                       4.6990215655E+00  5.8605170227E+00  9.6380072856E+00
                       3.3336289357E+00  2.1730042513E+00 -1.9141501225E-03
                       3.3336289357E+00  2.1730042513E+00  3.2148181981E+00
                       3.3324078403E+00  2.1708499052E+00  6.4265129545E+00
                       3.3324078403E+00  2.1708499052E+00  9.6380072856E+00
                       2.1752377887E+00  4.6934176006E+00  1.6064520240E+00
                       2.1755122442E+00  4.6947262126E+00  4.8203563164E+00
                       2.1756741971E+00  4.6946858405E+00  8.0322601200E+00
                       2.1755122442E+00  4.6947262126E+00  1.1244163924E+01
                       5.8561916171E+00  3.3379493274E+00  1.6064520240E+00
                       5.8559171616E+00  3.3366407153E+00  4.8203563164E+00
                       5.8557552087E+00  3.3366810874E+00  8.0322601200E+00
                       5.8559171616E+00  3.3366407153E+00  1.1244163924E+01
                       2.0565788172E+00  7.1572216326E+00 -4.0667076807E-03
                       2.0565788172E+00  7.1572216326E+00  3.2169707557E+00
                       2.0666318962E+00  7.1605407110E+00  6.4265354062E+00
                       2.0666318962E+00  7.1605407110E+00  9.6379848338E+00
                       5.9748505886E+00  8.7414529535E-01 -4.0667076807E-03
                       5.9748505886E+00  8.7414529535E-01  3.2169707557E+00
                       5.9647975096E+00  8.7082621689E-01  6.4265354062E+00
                       5.9647975096E+00  8.7082621689E-01  9.6379848338E+00
                       8.6824821971E-01  2.0600565396E+00  1.6064520240E+00
                       8.6799065426E-01  2.0605749454E+00  4.8202262907E+00
                       8.6722666720E-01  2.0601317613E+00  8.0322601200E+00
                       8.6799065426E-01  2.0605749454E+00  1.1244293949E+01
                       7.1631811861E+00  5.9713103883E+00  1.6064520240E+00
                       7.1634387515E+00  5.9707919825E+00  4.8202262907E+00
                       7.1642027386E+00  5.9712351666E+00  8.0322601200E+00
                       7.1634387515E+00  5.9707919825E+00  1.1244293949E+01
            xcart      7.5695224642E+00  1.9078552090E-02  3.0357543710E+00
                       7.5695224642E+00  1.9078552090E-02  9.1104218760E+00
                       7.5695224642E+00  1.9078552090E-02  1.5178771855E+01
                       7.5695224642E+00  1.9078552090E-02  2.1247121834E+01
                       1.9078552090E-02  7.5694634311E+00 -3.8201716752E-04
                       1.9078552090E-02  7.5694634311E+00  6.0718907592E+00
                       1.9078552090E-02  7.5694634311E+00  1.2143752012E+01
                       1.9078552090E-02  7.5694634311E+00  1.8213791698E+01
                       1.9307800280E+00  1.2461515459E+01  3.0357543710E+00
                       1.9323761427E+00  1.2460221888E+01  9.1128638977E+00
                       1.9369326587E+00  1.2462813200E+01  1.5178771855E+01
                       1.9323761427E+00  1.2460221888E+01  2.1244679812E+01
                       1.3246422005E+01  2.7155685077E+00  3.0357543710E+00
                       1.3244825890E+01  2.7168620780E+00  9.1128638977E+00
                       1.3240269374E+01  2.7142707660E+00  1.5178771855E+01
                       1.3244825890E+01  2.7168620780E+00  2.1244679812E+01
                       2.6824389280E+00  1.9189346478E+00 -7.8996541180E-04
                       2.6824389280E+00  1.9189346478E+00  6.0722987074E+00
                       2.6868790549E+00  1.9203233162E+00  1.2143872103E+01
                       2.6868790549E+00  1.9203233162E+00  1.8213671606E+01
                       1.2494763105E+01  1.3258149319E+01 -7.8996541180E-04
                       1.2494763105E+01  1.3258149319E+01  6.0722987074E+00
                       1.2490322978E+01  1.3256760650E+01  1.2143872103E+01
                       1.2490322978E+01  1.3256760650E+01  1.8213671606E+01
                       5.3676320164E+00  1.0374409711E+01 -5.3649264605E-05
                       5.3676320164E+00  1.0374409711E+01  6.0715623912E+00
                       5.3715167593E+00  1.0375048040E+01  1.2143599110E+01
                       5.3715167593E+00  1.0375048040E+01  1.8213944600E+01
                       9.8095700161E+00  4.8026742554E+00 -5.3649264605E-05
                       9.8095700161E+00  4.8026742554E+00  6.0715623912E+00
                       9.8056852732E+00  4.8020359263E+00  1.2143599110E+01
                       9.8056852732E+00  4.8020359263E+00  1.8213944600E+01
                       4.7989561092E+00  5.3597988736E+00  3.0357543710E+00
                       4.7970378609E+00  5.3639183503E+00  9.1107046779E+00
                       4.7967736067E+00  5.3630050588E+00  1.5178771855E+01
                       4.7970378609E+00  5.3639183503E+00  2.1246839032E+01
                       1.0378245923E+01  9.8172850929E+00  3.0357543710E+00
                       1.0380164172E+01  9.8131656162E+00  9.1107046779E+00
                       1.0380428426E+01  9.8140789076E+00  1.5178771855E+01
                       1.0380164172E+01  9.8131656162E+00  2.1246839032E+01
                       8.8775563154E+00  1.1070701046E+01 -3.6172195088E-03
                       8.8775563154E+00  1.1070701046E+01  6.0751259615E+00
                       8.8798638512E+00  1.1074772170E+01  1.2144349473E+01
                       8.8798638512E+00  1.1074772170E+01  1.8213194236E+01
                       6.2996457171E+00  4.1063829206E+00 -3.6172195088E-03
                       6.2996457171E+00  4.1063829206E+00  6.0751259615E+00
                       6.2973381813E+00  4.1023117965E+00  1.2144349473E+01
                       6.2973381813E+00  4.1023117965E+00  1.8213194236E+01
                       4.1106036946E+00  8.8692738923E+00  3.0357543710E+00
                       4.1111223402E+00  8.8717468107E+00  9.1091533009E+00
                       4.1114283869E+00  8.8716705185E+00  1.5178771855E+01
                       4.1111223402E+00  8.8717468107E+00  2.1248390409E+01
                       1.1066598338E+01  6.3078100742E+00  3.0357543710E+00
                       1.1066079692E+01  6.3053371558E+00  9.1091533009E+00
                       1.1065773646E+01  6.3054134480E+00  1.5178771855E+01
                       1.1066079692E+01  6.3053371558E+00  2.1248390409E+01
                       3.8863707352E+00  1.3525188758E+01 -7.6849637790E-03
                       3.8863707352E+00  1.3525188758E+01  6.0791937058E+00
                       3.9053683014E+00  1.3531460907E+01  1.2144391901E+01
                       3.9053683014E+00  1.3531460907E+01  1.8213151809E+01
                       1.1290831297E+01  1.6518952086E+00 -7.6849637790E-03
                       1.1290831297E+01  1.6518952086E+00  6.0791937058E+00
                       1.1271833731E+01  1.6456230593E+00  1.2144391901E+01
                       1.1271833731E+01  1.6456230593E+00  1.8213151809E+01
                       1.6407513506E+00  3.8929426782E+00  3.0357543710E+00
                       1.6402646225E+00  3.8939223231E+00  9.1089075880E+00
                       1.6388208961E+00  3.8930848266E+00  1.5178771855E+01
                       1.6402646225E+00  3.8939223231E+00  2.1248636122E+01
                       1.3536450682E+01  1.1284141288E+01  3.0357543710E+00
                       1.3536937410E+01  1.1283161643E+01  9.1089075880E+00
                       1.3538381136E+01  1.1283999140E+01  1.5178771855E+01
                       1.3536937410E+01  1.1283161643E+01  2.1248636122E+01
             xred      5.0000000000E-01 -2.4329327025E-20  1.2500000000E-01
                       5.0000000000E-01 -2.4329327025E-20  3.7513006499E-01
                       5.0000000000E-01 -2.4329327025E-20  6.2500000000E-01
                       5.0000000000E-01 -2.4329327024E-20  8.7486993501E-01
                       3.7641279810E-20  5.0000000000E-01 -1.5729910956E-05
                       3.7641279810E-20  5.0000000000E-01  2.5001572991E-01
                       3.7641279810E-20  5.0000000000E-01  5.0003024485E-01
                       3.7641279810E-20  5.0000000000E-01  7.4996975515E-01
                       1.2546255825E-01  8.2282768681E-01  1.2500000000E-01
                       1.2556820463E-01  8.2274197390E-01  3.7523061750E-01
                       1.2586875289E-01  8.2291238518E-01  6.2500000000E-01
                       1.2556820463E-01  8.2274197390E-01  8.7476938250E-01
                       8.7453744175E-01  1.7717231319E-01  1.2500000000E-01
                       8.7443179537E-01  1.7725802610E-01  3.7523061750E-01
                       8.7413124711E-01  1.7708761482E-01  6.2500000000E-01
                       8.7443179537E-01  1.7725802610E-01  8.7476938250E-01
                       1.7686844494E-01  1.2630920788E-01 -3.2527558032E-05
                       1.7686844494E-01  1.2630920788E-01  2.5003252756E-01
                       1.7716150537E-01  1.2640019756E-01  5.0003518975E-01
                       1.7716150537E-01  1.2640019756E-01  7.4996481025E-01
                       8.2313155506E-01  8.7369079212E-01 -3.2527558032E-05
                       8.2313155506E-01  8.7369079212E-01  2.5003252756E-01
                       8.2283849463E-01  8.7359980244E-01  5.0003518975E-01
                       8.2283849463E-01  8.7359980244E-01  7.4996481025E-01
                       3.5283055565E-01  6.8439109410E-01 -2.2090581965E-06
                       3.5283055565E-01  6.8439109410E-01  2.5000220906E-01
                       3.5308705523E-01  6.8443261235E-01  5.0002394899E-01
                       3.5308705523E-01  6.8443261235E-01  7.4997605101E-01
                       6.4716944435E-01  3.1560890590E-01 -2.2090581965E-06
                       6.4716944435E-01  3.1560890590E-01  2.5000220906E-01
                       6.4691294477E-01  3.1556738765E-01  5.0002394899E-01
                       6.4691294477E-01  3.1556738765E-01  7.4997605101E-01
                       3.1610166679E-01  3.5324414987E-01  1.2500000000E-01
                       3.1597427146E-01  3.5351658250E-01  3.7514170963E-01
                       3.1595696826E-01  3.5345629876E-01  6.2500000000E-01
                       3.1597427146E-01  3.5351658250E-01  8.7485829037E-01
                       6.8389833321E-01  6.4675585013E-01  1.2500000000E-01
                       6.8402572854E-01  6.4648341750E-01  3.7514170963E-01
                       6.8404303174E-01  6.4654370124E-01  6.2500000000E-01
                       6.8402572854E-01  6.4648341750E-01  8.7485829037E-01
                       5.8456192481E-01  7.2980046446E-01 -1.4894236600E-04
                       5.8456192481E-01  7.2980046446E-01  2.5014894237E-01
                       5.8471367079E-01  7.3006899961E-01  5.0005484590E-01
                       5.8471367079E-01  7.3006899961E-01  7.4994515410E-01
                       4.1543807519E-01  2.7019953554E-01 -1.4894236600E-04
                       4.1543807519E-01  2.7019953554E-01  2.5014894237E-01
                       4.1528632921E-01  2.6993100039E-01  5.0005484590E-01
                       4.1528632921E-01  2.6993100039E-01  7.4994515410E-01
                       2.7004840855E-01  5.8517817727E-01  1.2500000000E-01
                       2.7008225586E-01  5.8534144028E-01  3.7507783024E-01
                       2.7010248441E-01  5.8533634983E-01  6.2500000000E-01
                       2.7008225586E-01  5.8534144028E-01  8.7492216976E-01
                       7.2995159145E-01  4.1482182273E-01  1.2500000000E-01
                       7.2991774414E-01  4.1465855972E-01  3.7507783024E-01
                       7.2989751559E-01  4.1466365017E-01  6.2500000000E-01
                       7.2991774414E-01  4.1465855972E-01  8.7492216976E-01
                       2.5446159179E-01  8.9276336185E-01 -3.1643550662E-04
                       2.5446159179E-01  8.9276336185E-01  2.5031643551E-01
                       2.5571542769E-01  8.9317450768E-01  5.0005659290E-01
                       2.5571542769E-01  8.9317450768E-01  7.4994340710E-01
                       7.4553840821E-01  1.0723663815E-01 -3.1643550662E-04
                       7.4553840821E-01  1.0723663815E-01  2.5031643551E-01
                       7.4428457231E-01  1.0682549232E-01  5.0005659290E-01
                       7.4428457231E-01  1.0682549232E-01  7.4994340710E-01
                       1.0773134643E-01  2.5687632930E-01  1.2500000000E-01
                       1.0769903260E-01  2.5694112108E-01  3.7506771278E-01
                       1.0760380701E-01  2.5688604036E-01  6.2500000000E-01
                       1.0769903260E-01  2.5694112108E-01  8.7493228722E-01
                       8.9226865357E-01  7.4312367070E-01  1.2500000000E-01
                       8.9230096740E-01  7.4305887892E-01  3.7506771278E-01
                       8.9239619299E-01  7.4311395964E-01  6.2500000000E-01
                       8.9230096740E-01  7.4305887892E-01  8.7493228722E-01
            znucl       63.00000   38.00000    3.00000   13.00000    7.00000    8.00000

- Timing analysis has been suppressed with timopt=0

 Suggested references for the acknowledgment of ABINIT usage.

 Calculation completed.
.Delivered   0 WARNINGs and   0 COMMENTs to log file.