.Version 9.4.2 of ABINIT

 ABINIT is a project of the Universite Catholique de Louvain,
 Corning Inc. and other collaborators, see ~abinit/doc/developers/contributors.txt .
 acknowledgments of the ABINIT effort.

.Starting date : Wed 25 Aug 2021.
- ( at 04h28 )

- input  file    -> /scratch/users/j/b/jbouq/LumiWork_tuto/delta_SCF_no_BS/flow_deltaSCF/w0/t1/run.abi
- output file    -> /scratch/users/j/b/jbouq/LumiWork_tuto/delta_SCF_no_BS/flow_deltaSCF/w0/t1/run.abo
- root for input  files -> /scratch/users/j/b/jbouq/LumiWork_tuto/delta_SCF_no_BS/flow_deltaSCF/w0/t1/indata/in
- root for output files -> /scratch/users/j/b/jbouq/LumiWork_tuto/delta_SCF_no_BS/flow_deltaSCF/w0/t1/outdata/out

- inpspheads : Reading pseudopotential header in XML form from
-   /home/ucl/modl/jbouq/psps_paw_pbe/Eu.GGA_PBE-JTH.xml
- inpspheads : Reading pseudopotential header in XML form from
-   /home/ucl/modl/jbouq/psps_paw_pbe/Sr.GGA_PBE-JTH.xml
- inpspheads : Reading pseudopotential header in XML form from
-   /home/ucl/modl/jbouq/psps_paw_pbe/Li.GGA_PBE-JTH.xml
- inpspheads : Reading pseudopotential header in XML form from
-   /home/ucl/modl/jbouq/psps_paw_pbe/Al.GGA_PBE-JTH.xml
- inpspheads : Reading pseudopotential header in XML form from
-   /home/ucl/modl/jbouq/psps_paw_pbe/N.GGA_PBE-JTH.xml
- inpspheads : Reading pseudopotential header in XML form from
-   /home/ucl/modl/jbouq/psps_paw_pbe/O.GGA_PBE-JTH.xml

 Symmetries : space group P2/m (# 10); Bravais mP (primitive monocl.)
     intxc =       0    ionmov =      22      iscf =      17    lmnmax =      32
     lnmax =       8     mgfft =      90  mpssoang =       4    mqgrid =    6288
     natom =      72  nloc_mem =       2    nspden =       2   nspinor =       1
    nsppol =       2      nsym =       4    n1xccc =       1    ntypat =       6
    occopt =       2   xclevel =       2
-    mband =         204        mffmem =           1         mkmem =           1
       mpw =        1897          nfft =       32400          nkpt =           2
Pmy_natom=        18
 PAW method is used; the additional fine FFT grid is defined by:
   mgfftf=       150    nfftf =     96000
  Rough estimation (10% accuracy) of disk space for files :

------------- Echo of variables that govern the present computation ------------
-
- outvars: echo of selected default values
-   iomode0 =  0 , fftalg0 =512 , wfoptalg0 = 10
-
- outvars: echo of global parameters not present in the input file
-  max_nthreads =    0
-
 -outvars: echo values of preprocessed input variables --------
-          iomode           1
            acell      1.0000000000E+00  1.0000000000E+00  1.0000000000E+00 Bohr
              amu      1.51965000E+02  8.76200000E+01  6.94100000E+00
                       2.69815390E+01  1.40067400E+01  1.59994000E+01
           bandpp          68
       chkdilatmx           0
          chkprim           0
      chksymbreak           0
     densfor_pred           6
           diemac      5.00000000E+00
          dilatmx      1.05000000E+00
             ecut      1.50000000E+01 Hartree
           ecutsm      5.00000000E-01 Hartree
-          fftalg         401
           ionmov          22
           irdden           1
              ixc     -101130
            jpawu      2.57245278E-02  0.00000000E+00  0.00000000E+00  0.00000000E+00  0.00000000E+00  0.00000000E+00 Hartree
              kpt      2.50000000E-01  2.50000000E-01  2.50000000E-01
                      -2.50000000E-01  2.50000000E-01  2.50000000E-01
         kptrlatt        2    0    0      0    2    0      0    0    2
          kptrlen      3.02779499E+01
            lpawu           3      -1      -1      -1      -1      -1
P           mkmem           1
            natom          72
            nband         204     204     204     204
            ngfft          60      60      90
          ngfftdg          80      80     150
             nkpt           2
-           npfft          10
-        np_spkpt           4
           nspden           2
           nsppol           2
            nstep         100
             nsym           4
            ntime        1000
           ntypat           6
              occ      1.000000  1.000000  1.000000  1.000000  1.000000  1.000000
                       1.000000  1.000000  1.000000  1.000000  1.000000  1.000000
                       1.000000  1.000000  1.000000  1.000000  1.000000  1.000000
                       1.000000  1.000000  1.000000  1.000000  1.000000  1.000000
                       1.000000  1.000000  1.000000  1.000000  1.000000  1.000000
                       1.000000  1.000000  1.000000  1.000000  1.000000  1.000000
                       1.000000  1.000000  1.000000  1.000000  1.000000  1.000000
                       1.000000  1.000000  1.000000  1.000000  1.000000  1.000000
                       1.000000  1.000000  1.000000  1.000000  1.000000  1.000000
                       1.000000  1.000000  1.000000  1.000000  1.000000  1.000000
                       1.000000  1.000000  1.000000  1.000000  1.000000  1.000000
                       1.000000  1.000000  1.000000  1.000000  1.000000  1.000000
                       1.000000  1.000000  1.000000  1.000000  1.000000  1.000000
                       1.000000  1.000000  1.000000  1.000000  1.000000  1.000000
                       1.000000  1.000000  1.000000  1.000000  1.000000  1.000000
                       1.000000  1.000000  1.000000  1.000000  1.000000  1.000000
                       1.000000  1.000000  1.000000  1.000000  1.000000  1.000000
                       1.000000  1.000000  1.000000  1.000000  1.000000  1.000000
                       1.000000  1.000000  1.000000  1.000000  1.000000  1.000000
                       1.000000  1.000000  1.000000  1.000000  1.000000  1.000000
                       1.000000  1.000000  1.000000  1.000000  1.000000  1.000000
                       1.000000  1.000000  1.000000  1.000000  1.000000  1.000000
                       1.000000  1.000000  1.000000  1.000000  1.000000  1.000000
                       1.000000  1.000000  1.000000  1.000000  1.000000  1.000000
                       1.000000  1.000000  1.000000  1.000000  1.000000  1.000000
                       1.000000  1.000000  1.000000  1.000000  1.000000  1.000000
                       1.000000  1.000000  1.000000  1.000000  1.000000  1.000000
                       1.000000  1.000000  1.000000  1.000000  1.000000  1.000000
                       1.000000  1.000000  1.000000  1.000000  1.000000  1.000000
                       1.000000  1.000000  1.000000  1.000000  1.000000  1.000000
                       1.000000  1.000000  0.000000  1.000000  0.000000  0.000000
                       0.000000  0.000000  0.000000  0.000000  0.000000  0.000000
                       0.000000  0.000000  0.000000  0.000000  0.000000  0.000000
                       0.000000  0.000000  0.000000  0.000000  0.000000  0.000000
                       1.000000  1.000000  1.000000  1.000000  1.000000  1.000000
                       1.000000  1.000000  1.000000  1.000000  1.000000  1.000000
                       1.000000  1.000000  1.000000  1.000000  1.000000  1.000000
                       1.000000  1.000000  1.000000  1.000000  1.000000  1.000000
                       1.000000  1.000000  1.000000  1.000000  1.000000  1.000000
                       1.000000  1.000000  1.000000  1.000000  1.000000  1.000000
                       1.000000  1.000000  1.000000  1.000000  1.000000  1.000000
                       1.000000  1.000000  1.000000  1.000000  1.000000  1.000000
                       1.000000  1.000000  1.000000  1.000000  1.000000  1.000000
                       1.000000  1.000000  1.000000  1.000000  1.000000  1.000000
                       1.000000  1.000000  1.000000  1.000000  1.000000  1.000000
                       1.000000  1.000000  1.000000  1.000000  1.000000  1.000000
                       1.000000  1.000000  1.000000  1.000000  1.000000  1.000000
                       1.000000  1.000000  1.000000  1.000000  1.000000  1.000000
                       1.000000  1.000000  1.000000  1.000000  1.000000  1.000000
                       1.000000  1.000000  1.000000  1.000000  1.000000  1.000000
                       1.000000  1.000000  1.000000  1.000000  1.000000  1.000000
                       1.000000  1.000000  1.000000  1.000000  1.000000  1.000000
                       1.000000  1.000000  1.000000  1.000000  1.000000  1.000000
                       1.000000  1.000000  1.000000  1.000000  1.000000  1.000000
                       1.000000  1.000000  1.000000  1.000000  1.000000  1.000000
                       1.000000  1.000000  1.000000  1.000000  1.000000  1.000000
                       1.000000  1.000000  1.000000  1.000000  1.000000  1.000000
                       1.000000  1.000000  1.000000  1.000000  1.000000  1.000000
                       1.000000  1.000000  1.000000  1.000000  1.000000  1.000000
                       1.000000  1.000000  1.000000  1.000000  1.000000  1.000000
                       1.000000  1.000000  1.000000  1.000000  1.000000  1.000000
[...]
                       1.000000  1.000000  1.000000  1.000000  1.000000  1.000000
                       1.000000  1.000000  1.000000  1.000000  1.000000  1.000000
                       1.000000  1.000000  1.000000  1.000000  1.000000  1.000000
                       1.000000  1.000000  1.000000  1.000000  1.000000  1.000000
                       1.000000  1.000000  1.000000  1.000000  1.000000  1.000000
                       1.000000  1.000000  1.000000  1.000000  1.000000  1.000000
                       1.000000  1.000000  1.000000  1.000000  1.000000  1.000000
                       1.000000  1.000000  1.000000  1.000000  1.000000  1.000000
                       1.000000  1.000000  1.000000  1.000000  1.000000  1.000000
                       1.000000  1.000000  1.000000  1.000000  1.000000  1.000000
                       1.000000  1.000000  0.000000  0.000000  0.000000  0.000000
                       0.000000  0.000000  0.000000  0.000000  0.000000  0.000000
                       0.000000  0.000000  0.000000  0.000000  0.000000  0.000000
                       0.000000  0.000000  0.000000  0.000000  0.000000  0.000000
                       0.000000  0.000000  0.000000  0.000000  0.000000  0.000000
           occopt           2
        optforces           1
        paral_kgb           1
        pawecutdg      3.00000000E+01 Hartree
         pawmixdg           1
            prtwf          -1
            rprim      1.5139044928E+01  3.8157104200E-02  0.0000000000E+00
                       3.8157104200E-02  1.5138926862E+01  0.0000000000E+00
                       0.0000000000E+00  0.0000000000E+00  2.4286034968E+01
           shiftk      5.00000000E-01  5.00000000E-01  5.00000000E-01
          spgroup          10
           spinat      0.0000000000E+00  0.0000000000E+00  7.0000000000E+00
                       0.0000000000E+00  0.0000000000E+00  0.0000000000E+00
                       0.0000000000E+00  0.0000000000E+00  0.0000000000E+00
[...]
         wfoptalg         114
              wtk        0.50000    0.50000
           xangst      4.0056187680E+00  1.0095934944E-02  1.6064520240E+00
                       4.0056187680E+00  1.0095934944E-02  4.7975601450E+00
                       4.0056187680E+00  1.0095934944E-02  8.0322601200E+00
                       4.0056187680E+00  1.0095934944E-02  1.1266960095E+01
                       1.0095934944E-02  4.0055875290E+00 -6.3298991188E-04
                       1.0095934944E-02  4.0055875290E+00  3.2135370379E+00
                       1.0095934944E-02  4.0055875290E+00  6.4282873126E+00
                       1.0095934944E-02  4.0055875290E+00  9.6362329274E+00
                       1.0186555920E+00  6.5960341547E+00  1.6064520240E+00
                       1.0264806288E+00  6.5984936123E+00  4.8143760797E+00
                       1.0213180373E+00  6.5906890205E+00  8.0322601200E+00
                       1.0264806288E+00  6.5984936123E+00  1.1250144160E+01
                       7.0127738138E+00  1.4353327733E+00  1.6064520240E+00
                       7.0049487771E+00  1.4328733156E+00  4.8143760797E+00
                       7.0101113686E+00  1.4406779074E+00  8.0322601200E+00
                       7.0049487771E+00  1.4328733156E+00  1.1250144160E+01
                       1.4193887837E+00  1.0176058534E+00  5.3445585461E-03
                       1.4193887837E+00  1.0176058534E+00  3.2075594895E+00
                       1.4230763747E+00  1.0131939003E+00  6.4266279823E+00
                       1.4230763747E+00  1.0131939003E+00  9.6378922578E+00
                       6.6120406221E+00  7.0137610746E+00  5.3445585461E-03
                       6.6120406221E+00  7.0137610746E+00  3.2075594895E+00
                       6.6083530311E+00  7.0181730276E+00  6.4266279823E+00
                       6.6083530311E+00  7.0181730276E+00  9.6378922578E+00
                       2.8459457086E+00  5.4914837828E+00  1.4547768110E-02
                       2.8459457086E+00  5.4914837828E+00  3.1983562799E+00
                       2.8427543354E+00  5.4912052809E+00  6.4218349202E+00
                       2.8427543354E+00  5.4912052809E+00  9.6426853199E+00
                       5.1854836972E+00  2.5398831451E+00  1.4547768110E-02
                       5.1854836972E+00  2.5398831451E+00  3.1983562799E+00
                       5.1886750704E+00  2.5401616470E+00  6.4218349202E+00
                       5.1886750704E+00  2.5401616470E+00  9.6426853199E+00
                       2.5334400453E+00  2.8222455534E+00  1.6064520240E+00
                       2.5436342877E+00  2.8262977223E+00  4.8154441619E+00
                       2.5411977695E+00  2.8400736792E+00  8.0322601200E+00
                       2.5436342877E+00  2.8262977223E+00  1.1249076078E+01
                       5.4979893605E+00  5.2091213745E+00  1.6064520240E+00
                       5.4877951181E+00  5.2050692056E+00  4.8154441619E+00
                       5.4902316363E+00  5.1912932487E+00  8.0322601200E+00
                       5.4877951181E+00  5.2050692056E+00  1.1249076078E+01
                       4.6981272331E+00  5.8976196512E+00  1.6136936201E-02
                       4.6981272331E+00  5.8976196512E+00  3.1967671118E+00
                       4.6995714229E+00  5.8566265005E+00  6.4256633912E+00
                       4.6995714229E+00  5.8566265005E+00  9.6388568489E+00
                       3.3333021727E+00  2.1337472767E+00  1.6136936201E-02
                       3.3333021727E+00  2.1337472767E+00  3.1967671118E+00
                       3.3318579829E+00  2.1747404274E+00  6.4256633912E+00
                       3.3318579829E+00  2.1747404274E+00  9.6388568489E+00
                       2.1797261610E+00  4.6768281707E+00  1.6064520240E+00
                       2.1907893082E+00  4.6891666653E+00  4.8026781106E+00
                       2.1753161749E+00  4.6960857954E+00  8.0322601200E+00
                       2.1907893082E+00  4.6891666653E+00  1.1261842129E+01
                       5.8517032448E+00  3.3545387572E+00  1.6064520240E+00
                       5.8406400976E+00  3.3422002627E+00  4.8026781106E+00
                       5.8561132309E+00  3.3352811326E+00  8.0322601200E+00
                       5.8406400976E+00  3.3422002627E+00  1.1261842129E+01
                       2.0758004671E+00  7.1660608627E+00  4.2371781069E-02
                       2.0758004671E+00  7.1660608627E+00  3.1705322669E+00
                       2.0458665251E+00  7.1495959061E+00  6.4173682572E+00
                       2.0458665251E+00  7.1495959061E+00  9.6471519829E+00
                       5.9556289387E+00  8.6530606527E-01  4.2371781069E-02
                       5.9556289387E+00  8.6530606527E-01  3.1705322669E+00
                       5.9855628808E+00  8.8177102187E-01  6.4173682572E+00
                       5.9855628808E+00  8.8177102187E-01  9.6471519829E+00
                       8.5710671669E-01  2.0586468034E+00  1.6064520240E+00
                       8.6688282883E-01  2.0589832048E+00  4.8093201910E+00
                       8.6845895755E-01  2.0650104438E+00  8.0322601200E+00
                       8.6688282883E-01  2.0589832048E+00  1.1255200049E+01
                       7.1743226891E+00  5.9727201245E+00  1.6064520240E+00
                       7.1645465770E+00  5.9723837231E+00  4.8093201910E+00
                       7.1629704483E+00  5.9663564841E+00  8.0322601200E+00
                       7.1645465770E+00  5.9723837231E+00  1.1255200049E+01
            xcart      7.5695224642E+00  1.9078552100E-02  3.0357543710E+00
                       7.5695224642E+00  1.9078552100E-02  9.0660747800E+00
                       7.5695224642E+00  1.9078552100E-02  1.5178771855E+01
                       7.5695224642E+00  1.9078552100E-02  2.1291468930E+01
                       1.9078552100E-02  7.5694634311E+00 -1.1961775783E-03
                       1.9078552100E-02  7.5694634311E+00  6.0727049196E+00
                       1.9078552100E-02  7.5694634311E+00  1.2147702524E+01
                       1.9078552100E-02  7.5694634311E+00  1.8209841185E+01
                       1.9249800926E+00  1.2464698115E+01  3.0357543710E+00
                       1.9397672691E+00  1.2469345817E+01  9.0978522914E+00
                       1.9300113850E+00  1.2454597276E+01  1.5178771855E+01
                       1.9397672691E+00  1.2469345817E+01  2.1259691418E+01
                       1.3252221940E+01  2.7123858510E+00  3.0357543710E+00
                       1.3237434764E+01  2.7077381497E+00  9.0978522914E+00
                       1.3247190648E+01  2.7224866906E+00  1.5178771855E+01
                       1.3237434764E+01  2.7077381497E+00  2.1259691418E+01
                       2.6822560773E+00  1.9229963741E+00  1.0099751953E-02
                       2.6822560773E+00  1.9229963741E+00  6.0614089900E+00
                       2.6892246143E+00  1.9146589911E+00  1.2144566844E+01
                       2.6892246143E+00  1.9146589911E+00  1.8212976865E+01
                       1.2494945955E+01  1.3254087592E+01  1.0099751953E-02
                       1.2494945955E+01  1.3254087592E+01  6.0614089900E+00
                       1.2487977418E+01  1.3262424975E+01  1.2144566844E+01
                       1.2487977418E+01  1.3262424975E+01  1.8212976865E+01
                       5.3780579783E+00  1.0377400413E+01  2.7491297572E-02
                       5.3780579783E+00  1.0377400413E+01  6.0440174444E+00
                       5.3720271570E+00  1.0376874120E+01  1.2135509270E+01
                       5.3720271570E+00  1.0376874120E+01  1.8222034440E+01
                       9.7991440543E+00  4.7996835538E+00  2.7491297572E-02
                       9.7991440543E+00  4.7996835538E+00  6.0440174444E+00
                       9.8051748756E+00  4.8002098462E+00  1.2135509270E+01
                       9.8051748756E+00  4.8002098462E+00  1.8222034440E+01
                       4.7875078597E+00  5.3332711757E+00  3.0357543710E+00
                       4.8067721860E+00  5.3409286651E+00  9.0998706741E+00
                       4.8021678339E+00  5.3669614509E+00  1.5178771855E+01
                       4.8067721860E+00  5.3409286651E+00  2.1257673036E+01
                       1.0389694173E+01  9.8438127908E+00  3.0357543710E+00
                       1.0370429847E+01  9.8361553014E+00  9.0998706741E+00
                       1.0375034199E+01  9.8101225156E+00  1.5178771855E+01
                       1.0370429847E+01  9.8361553014E+00  2.1257673036E+01
                       8.8781738080E+00  1.1144885977E+01  3.0494390044E-02
                       8.8781738080E+00  1.1144885977E+01  6.0410143519E+00
                       8.8809029313E+00  1.1067420149E+01  1.2142744031E+01
                       8.8809029313E+00  1.1067420149E+01  1.8214799678E+01
                       6.2990282246E+00  4.0321979897E+00  3.0494390044E-02
                       6.2990282246E+00  4.0321979897E+00  6.0410143519E+00
                       6.2962991013E+00  4.1096638179E+00  1.2142744031E+01
                       6.2962991013E+00  4.1096638179E+00  1.8214799678E+01
                       4.1190854890E+00  8.8379244132E+00  3.0357543710E+00
                       4.1399918073E+00  8.8612407888E+00  9.0757463335E+00
                       4.1107518230E+00  8.8743160498E+00  1.5178771855E+01
                       4.1399918073E+00  8.8612407888E+00  2.1281797376E+01
                       1.1058116544E+01  6.3391595533E+00  3.0357543710E+00
                       1.1037210225E+01  6.3158431777E+00  9.0757463335E+00
                       1.1066450210E+01  6.3027679167E+00  1.5178771855E+01
                       1.1037210225E+01  6.3158431777E+00  2.1281797376E+01
                       3.9226943894E+00  1.3541892482E+01  8.0071061983E-02
                       3.9226943894E+00  1.3541892482E+01  5.9914376800E+00
                       3.8661274368E+00  1.3510778223E+01  1.2127068500E+01
                       3.8661274368E+00  1.3510778223E+01  1.8230475210E+01
                       1.1254507643E+01  1.6351914845E+00  8.0071061983E-02
                       1.1254507643E+01  1.6351914845E+00  5.9914376800E+00
                       1.1311074596E+01  1.6663057433E+00  1.2127068500E+01
                       1.1311074596E+01  1.6663057433E+00  1.8230475210E+01
                       1.6196969612E+00  3.8902786627E+00  3.0357543710E+00
                       1.6381711358E+00  3.8909143693E+00  9.0882980463E+00
                       1.6411495874E+00  3.9023042003E+00  1.5178771855E+01
                       1.6381711358E+00  3.8909143693E+00  2.1269245664E+01
                       1.3557505071E+01  1.1286805304E+01  3.0357543710E+00
                       1.3539030897E+01  1.1286169597E+01  9.0882980463E+00
                       1.3536052445E+01  1.1274779766E+01  1.5178771855E+01
                       1.3539030897E+01  1.1286169597E+01  2.1269245664E+01
             xred      5.0000000000E-01 -2.1026258012E-19  1.2500000000E-01
                       5.0000000000E-01 -2.1026258012E-19  3.7330403222E-01
                       5.0000000000E-01 -2.1026258012E-19  6.2500000000E-01
                       5.0000000000E-01 -2.1026258012E-19  8.7669596778E-01
                      -5.5505649310E-17  5.0000000000E-01 -4.9253720499E-05
                      -5.5505649310E-17  5.0000000000E-01  2.5004925372E-01
                      -5.5505649310E-17  5.0000000000E-01  5.0019291088E-01
                      -5.5505649310E-17  5.0000000000E-01  7.4980708912E-01
                       1.2507891489E-01  8.2303888377E-01  1.2500000000E-01
                       1.2605490486E-01  8.2334342718E-01  3.7461250070E-01
                       1.2541293750E-01  8.2237083213E-01  6.2500000000E-01
                       1.2605490486E-01  8.2334342718E-01  8.7538749930E-01
                       8.7492108511E-01  1.7696111623E-01  1.2500000000E-01
                       8.7394509514E-01  1.7665657282E-01  3.7461250070E-01
                       8.7458706250E-01  1.7762916787E-01  6.2500000000E-01
                       8.7394509514E-01  1.7665657282E-01  8.7538749930E-01
                       1.7685569055E-01  1.2657753687E-01  4.1586664792E-04
                       1.7685569055E-01  1.2657753687E-01  2.4958413335E-01
                       1.7731738384E-01  1.2602564835E-01  5.0006379635E-01
                       1.7731738384E-01  1.2602564835E-01  7.4993620365E-01
                       8.2314430945E-01  8.7342246313E-01  4.1586664792E-04
                       8.2314430945E-01  8.7342246313E-01  2.4958413335E-01
                       8.2268261616E-01  8.7397435165E-01  5.0006379635E-01
                       8.2268261616E-01  8.7397435165E-01  7.4993620365E-01
                       3.5351874240E-01  6.8458690999E-01  1.1319796586E-03
                       3.5351874240E-01  6.8458690999E-01  2.4886802034E-01
                       3.5312046542E-01  6.8455314965E-01  4.9969084232E-01
                       3.5312046542E-01  6.8455314965E-01  7.5030915768E-01
                       6.4648125760E-01  3.1541309001E-01  1.1319796586E-03
                       6.4648125760E-01  3.1541309001E-01  2.4886802034E-01
                       6.4687953458E-01  3.1544685035E-01  4.9969084232E-01
                       6.4687953458E-01  3.1544685035E-01  7.5030915768E-01
                       3.1534987169E-01  3.5149376083E-01  1.2500000000E-01
                       3.1662109773E-01  3.5199637130E-01  3.7469560948E-01
                       3.1631262408E-01  3.5371674134E-01  6.2500000000E-01
                       3.1662109773E-01  3.5199637130E-01  8.7530439052E-01
                       6.8465012831E-01  6.4850623917E-01  1.2500000000E-01
                       6.8337890227E-01  6.4800362870E-01  3.7469560948E-01
                       6.8368737592E-01  6.4628325866E-01  6.2500000000E-01
                       6.8337890227E-01  6.4800362870E-01  8.7530439052E-01
                       5.8459036219E-01  7.3470066951E-01  1.2556347747E-03
                       5.8459036219E-01  7.3470066951E-01  2.4874436523E-01
                       5.8478353103E-01  7.2958318664E-01  4.9998874034E-01
                       5.8478353103E-01  7.2958318664E-01  7.5001125966E-01
                       4.1540963781E-01  2.6529933049E-01  1.2556347747E-03
                       4.1540963781E-01  2.6529933049E-01  2.4874436523E-01
                       4.1521646897E-01  2.7041681336E-01  4.9998874034E-01
                       4.1521646897E-01  2.7041681336E-01  7.5001125966E-01
                       2.7061389099E-01  5.8310596590E-01  1.2500000000E-01
                       2.7199097143E-01  5.8464265542E-01  3.7370226739E-01
                       2.7005735368E-01  5.8551121383E-01  6.2500000000E-01
                       2.7199097143E-01  5.8464265542E-01  8.7629773261E-01
                       7.2938610901E-01  4.1689403410E-01  1.2500000000E-01
                       7.2800902857E-01  4.1535734458E-01  3.7370226739E-01
                       7.2994264632E-01  4.1448878617E-01  6.2500000000E-01
                       7.2800902857E-01  4.1535734458E-01  8.7629773261E-01
                       2.5685816196E-01  8.9386068388E-01  3.2970001933E-03
                       2.5685816196E-01  8.9386068388E-01  2.4670299981E-01
                       2.5312682426E-01  8.9181483994E-01  4.9934328580E-01
                       2.5312682426E-01  8.9181483994E-01  7.5065671420E-01
                       7.4314183804E-01  1.0613931612E-01  3.2970001933E-03
                       7.4314183804E-01  1.0613931612E-01  2.4670299981E-01
                       7.4687317574E-01  1.0818516006E-01  4.9934328580E-01
                       7.4687317574E-01  1.0818516006E-01  7.5065671420E-01
                       1.0634104680E-01  2.5670386228E-01  1.2500000000E-01
                       1.0756124858E-01  2.5674277833E-01  3.7421909580E-01
                       1.0775609329E-01  2.5749464115E-01  6.2500000000E-01
                       1.0756124858E-01  2.5674277833E-01  8.7578090420E-01
                       8.9365895320E-01  7.4329613772E-01  1.2500000000E-01
                       8.9243875142E-01  7.4325722167E-01  3.7421909580E-01
                       8.9224390671E-01  7.4250535885E-01  6.2500000000E-01
                       8.9243875142E-01  7.4325722167E-01  8.7578090420E-01
            znucl       63.00000   38.00000    3.00000   13.00000    7.00000    8.00000

- Timing analysis has been suppressed with timopt=0

 Suggested references for the acknowledgment of ABINIT usage.

 Calculation completed.
.Delivered   0 WARNINGs and   0 COMMENTs to log file.